(Al)4  (Fm-3m)
1.000000
25.560058 0.000000 0.000000
0.000000 12.780029 0.000000
0.000000 0.000000 4.041400
69
Selective dynamics
Direct
  0.500000  0.000000  0.000000 T T T
  0.575000  0.050000  0.500000 T T T
  0.425000  0.050000  0.500000 T T T
  0.550000  0.200000  0.000000 T T T
  0.450000  0.200000  0.000000 T T T
  0.525000  0.350000  0.500000 T T T
  0.500000  0.500000  0.000000 T T T
  0.650000  0.100000  0.000000 T T T
  0.350000  0.100000  0.000000 T T T
  0.625000  0.250000  0.500000 T T T
  0.375000  0.250000  0.500000 T T T
  0.725000  0.150000  0.500000 T T T
  0.275000  0.150000  0.500000 T T T
  0.700000  0.300000  0.000000 T T T
  0.300000  0.300000  0.000000 T T T
  0.600000  0.400000  0.000000 T T T
  0.400000  0.400000  0.000000 T T T
  0.575000  0.550000  0.500000 T T T
  0.425000  0.550000  0.500000 T T T
  0.675000  0.450000  0.500000 T T T
  0.325000  0.450000  0.500000 T T T
  0.650000  0.600000  0.000000 T T T
  0.350000  0.600000  0.000000 T T T
  0.550000  0.700000  0.000000 T T T
  0.450000  0.700000  0.000000 T T T
  0.475000  0.850000  0.500000 T T T
  0.625000  0.750000  0.500000 T T T
  0.375000  0.750000  0.500000 T T T
  0.600000  0.900000  0.000000 T T T
  0.400000  0.900000  0.000000 T T T
  0.800000  0.200000  0.000000 T T T
  0.200000  0.200000  0.000000 T T T
  0.775000  0.350000  0.500000 T T T
  0.225000  0.350000  0.500000 T T T
  0.875000  0.250000  0.500000 T T T
  0.125000  0.250000  0.500000 T T T
  0.850000  0.400000  0.000000 T T T
  0.150000  0.400000  0.000000 T T T
  0.750000  0.500000  0.000000 T T T
  0.250000  0.500000  0.000000 T T T
  0.725000  0.650000  0.500000 T T T
  0.275000  0.650000  0.500000 T T T
  0.825000  0.550000  0.500000 T T T
  0.175000  0.550000  0.500000 T T T
  0.800000  0.700000  0.000000 T T T
  0.200000  0.700000  0.000000 T T T
  0.700000  0.800000  0.000000 T T T
  0.300000  0.800000  0.000000 T T T
  0.675000  0.950000  0.500000 T T T
  0.325000  0.950000  0.500000 T T T
  0.775000  0.850000  0.500000 T T T
  0.225000  0.850000  0.500000 T T T
  0.900000  0.100000  0.000000 T T T
  0.100000  0.100000  0.000000 T T T
  0.950000  0.300000  0.000000 T T T
  0.050000  0.300000  0.000000 T T T
  0.925000  0.450000  0.500000 T T T
  0.075000  0.450000  0.500000 T T T
  0.000000  0.500000  0.000000 T T T
  0.900000  0.600000  0.000000 T T T
  0.100000  0.600000  0.000000 T T T
  0.875000  0.750000  0.500000 T T T
  0.125000  0.750000  0.500000 T T T
  0.975000  0.650000  0.500000 T T T
  0.950000  0.800000  0.000000 T T T
  0.050000  0.800000  0.000000 T T T
  0.850000  0.900000  0.000000 T T T
  0.150000  0.900000  0.000000 T T T
  0.925000  0.950000  0.500000 T T T
