(Al)4  (Fm-3m)
1.000000
25.560058 0.000000 0.000000
0.000000 12.780029 0.000000
0.000000 0.000000 4.041400
70
Selective dynamics
Direct
  0.500000  0.000000  0.000000 T T T
  0.559293  0.039528  0.500000 T T T
  0.440707  0.039528  0.500000 T T T
  0.539528  0.158114  0.000000 T T T
  0.460472  0.158114  0.000000 T T T
  0.519764  0.276699  0.500000 T T T
  0.500000  0.395285  0.000000 T T T
  0.618585  0.079057  0.000000 T T T
  0.381415  0.079057  0.000000 T T T
  0.598821  0.197642  0.500000 T T T
  0.401179  0.197642  0.500000 T T T
  0.677878  0.118585  0.500000 T T T
  0.322122  0.118585  0.500000 T T T
  0.658114  0.237171  0.000000 T T T
  0.341886  0.237171  0.000000 T T T
  0.579057  0.316228  0.000000 T T T
  0.420943  0.316228  0.000000 T T T
  0.559293  0.434813  0.500000 T T T
  0.440707  0.434813  0.500000 T T T
  0.638350  0.355756  0.500000 T T T
  0.361650  0.355756  0.500000 T T T
  0.618585  0.474342  0.000000 T T T
  0.381415  0.474342  0.000000 T T T
  0.539528  0.553399  0.000000 T T T
  0.460472  0.553399  0.000000 T T T
  0.519764  0.671984  0.500000 T T T
  0.598821  0.592927  0.500000 T T T
  0.401179  0.592927  0.500000 T T T
  0.579057  0.711512  0.000000 T T T
  0.420943  0.711512  0.000000 T T T
  0.737171  0.158114  0.000000 T T T
  0.262829  0.158114  0.000000 T T T
  0.717407  0.276699  0.500000 T T T
  0.282593  0.276699  0.500000 T T T
  0.796464  0.197642  0.500000 T T T
  0.203536  0.197642  0.500000 T T T
  0.776699  0.316228  0.000000 T T T
  0.223301  0.316228  0.000000 T T T
  0.697642  0.395285  0.000000 T T T
  0.302358  0.395285  0.000000 T T T
  0.677878  0.513870  0.500000 T T T
  0.322122  0.513870  0.500000 T T T
  0.756935  0.434813  0.500000 T T T
  0.243065  0.434813  0.500000 T T T
  0.737171  0.553399  0.000000 T T T
  0.262829  0.553399  0.000000 T T T
  0.658114  0.632456  0.000000 T T T
  0.341886  0.632456  0.000000 T T T
  0.638350  0.751041  0.500000 T T T
  0.361650  0.751041  0.500000 T T T
  0.717407  0.671984  0.500000 T T T
  0.282593  0.671984  0.500000 T T T
  0.183772  0.079057  0.000000 T T T
  0.855756  0.237171  0.000000 T T T
  0.144244  0.237171  0.000000 T T T
  0.835992  0.355756  0.500000 T T T
  0.164008  0.355756  0.500000 T T T
  0.104715  0.395285  0.000000 T T T
  0.816228  0.474342  0.000000 T T T
  0.183772  0.474342  0.000000 T T T
  0.796464  0.592927  0.500000 T T T
  0.203536  0.592927  0.500000 T T T
  0.875520  0.513870  0.500000 T T T
  0.124480  0.513870  0.500000 T T T
  0.855756  0.632456  0.000000 T T T
  0.144244  0.632456  0.000000 T T T
  0.776699  0.711512  0.000000 T T T
  0.223301  0.711512  0.000000 T T T
  0.835992  0.751041  0.500000 T T T
  0.164008  0.751041  0.500000 T T T
