(Al)4  (Fm-3m)
   1.00000000000000
  25.5600578716    0.0000000000    0.0000000000
   0.0000000000   12.7800289358    0.0000000000
   0.0000000000    0.0000000000    4.0414000000
  75
Direct
   0.5000000000    0.0000000000    0.0000000000 T T T
   0.5592927061    0.0395284708    0.5000000000 T T T
   0.4407072939    0.0395284708    0.5000000000 T T T
   0.5395284708    0.1581138830    0.0000000000 T T T
   0.4604715292    0.1581138830    0.0000000000 T T T
   0.5197642354    0.2766992953    0.5000000000 T T T
   0.4802357646    0.2766992953    0.5000000000 T T T
   0.5000000000    0.3952847075    0.0000000000 T T T
   0.6185854123    0.0790569415    0.0000000000 T T T
   0.3814145877    0.0790569415    0.0000000000 T T T
   0.5988211769    0.1976423538    0.5000000000 T T T
   0.4011788231    0.1976423538    0.5000000000 T T T
   0.6778781184    0.1185854123    0.5000000000 T T T
   0.3221218816    0.1185854123    0.5000000000 T T T
   0.6581138830    0.2371708245    0.0000000000 T T T
   0.3418861170    0.2371708245    0.0000000000 T T T
   0.5790569415    0.3162277660    0.0000000000 T T T
   0.4209430585    0.3162277660    0.0000000000 T T T
   0.5592927061    0.4348131783    0.5000000000 T T T
   0.4407072939    0.4348131783    0.5000000000 T T T
   0.6383496476    0.3557562368    0.5000000000 T T T
   0.3616503524    0.3557562368    0.5000000000 T T T
   0.6185854123    0.4743416490    0.0000000000 T T T
   0.3814145877    0.4743416490    0.0000000000 T T T
   0.5395284708    0.5533985905    0.0000000000 T T T
   0.4604715292    0.5533985905    0.0000000000 T T T
   0.5197642354    0.6719840028    0.5000000000 T T T
   0.4802357646    0.6719840028    0.5000000000 T T T
   0.5988211769    0.5929270613    0.5000000000 T T T
   0.4011788231    0.5929270613    0.5000000000 T T T
   0.5790569415    0.7115124735    0.0000000000 T T T
   0.4209430585    0.7115124735    0.0000000000 T T T
   0.7371708245    0.1581138830    0.0000000000 T T T
   0.2628291755    0.1581138830    0.0000000000 T T T
   0.7174065891    0.2766992953    0.5000000000 T T T
   0.2825934109    0.2766992953    0.5000000000 T T T
   0.7964635306    0.1976423538    0.5000000000 T T T
   0.2035364694    0.1976423538    0.5000000000 T T T
   0.7766992953    0.3162277660    0.0000000000 T T T
   0.2233007047    0.3162277660    0.0000000000 T T T
   0.6976423538    0.3952847075    0.0000000000 T T T
   0.3023576462    0.3952847075    0.0000000000 T T T
   0.6778781184    0.5138701198    0.5000000000 T T T
   0.3221218816    0.5138701198    0.5000000000 T T T
   0.7569350599    0.4348131783    0.5000000000 T T T
   0.2430649401    0.4348131783    0.5000000000 T T T
   0.7371708245    0.5533985905    0.0000000000 T T T
   0.2628291755    0.5533985905    0.0000000000 T T T
   0.6581138830    0.6324555320    0.0000000000 T T T
   0.3418861170    0.6324555320    0.0000000000 T T T
   0.6383496476    0.7510409443    0.5000000000 T T T
   0.3616503524    0.7510409443    0.5000000000 T T T
   0.7174065891    0.6719840028    0.5000000000 T T T
   0.2825934109    0.6719840028    0.5000000000 T T T
   0.8162277660    0.0790569415    0.0000000000 T T T
   0.1837722340    0.0790569415    0.0000000000 T T T
   0.8557562368    0.2371708245    0.0000000000 T T T
   0.1442437632    0.2371708245    0.0000000000 T T T
   0.8359920014    0.3557562368    0.5000000000 T T T
   0.1640079986    0.3557562368    0.5000000000 T T T
   0.1047152925    0.3952847075    0.0000000000 T T T
   0.8162277660    0.4743416490    0.0000000000 T T T
   0.1837722340    0.4743416490    0.0000000000 T T T
   0.7964635306    0.5929270613    0.5000000000 T T T
   0.2035364694    0.5929270613    0.5000000000 T T T
   0.8755204721    0.5138701198    0.5000000000 T T T
   0.1244795279    0.5138701198    0.5000000000 T T T
   0.8557562368    0.6324555320    0.0000000000 T T T
   0.1442437632    0.6324555320    0.0000000000 T T T
   0.7766992953    0.7115124735    0.0000000000 T T T
   0.2233007047    0.7115124735    0.0000000000 T T T
   0.8359920014    0.7510409443    0.5000000000 T T T
   0.1640079986    0.7510409443    0.5000000000 T T T
   0.8755204721    0.1185854123    0.5000000000 T T T
   0.1244795279    0.1185854123    0.5000000000 T T T
