(Al)4  (Fm-3m) 
1.000000
19.814593 0.000000 0.000000
0.000000 10.264348 0.000000
0.000000 0.000000 8.082800
67
Selective dynamics
Direct
  0.500000  0.000000  0.000000 T T T
  0.600000  0.038609  0.250000 T T T
  0.400000  0.038609  0.250000 T T T
  0.580000  0.231651  0.000000 T T T
  0.420000  0.231651  0.000000 T T T
  0.500000  0.000000  0.500000 T T T
  0.600000  0.038609  0.750000 T T T
  0.400000  0.038609  0.750000 T T T
  0.580000  0.231651  0.500000 T T T
  0.420000  0.231651  0.500000 T T T
  0.560000  0.424694  0.250000 T T T
  0.440000  0.424694  0.250000 T T T
  0.540000  0.617737  0.000000 T T T
  0.560000  0.424694  0.750000 T T T
  0.440000  0.424694  0.750000 T T T
  0.460000  0.617737  0.500000 T T T
  0.480000  0.810780  0.250000 T T T
  0.520000  0.810780  0.750000 T T T
  0.700000  0.077217  0.000000 T T T
  0.300000  0.077217  0.000000 T T T
  0.680000  0.270260  0.250000 T T T
  0.320000  0.270260  0.250000 T T T
  0.200000  0.115826  0.250000 T T T
  0.780000  0.308869  0.000000 T T T
  0.220000  0.308869  0.000000 T T T
  0.700000  0.077217  0.500000 T T T
  0.300000  0.077217  0.500000 T T T
  0.680000  0.270260  0.750000 T T T
  0.320000  0.270260  0.750000 T T T
  0.200000  0.115826  0.750000 T T T
  0.780000  0.308869  0.500000 T T T
  0.220000  0.308869  0.500000 T T T
  0.660000  0.463303  0.000000 T T T
  0.340000  0.463303  0.000000 T T T
  0.640000  0.656346  0.250000 T T T
  0.360000  0.656346  0.250000 T T T
  0.760000  0.501912  0.250000 T T T
  0.240000  0.501912  0.250000 T T T
  0.740000  0.694954  0.000000 T T T
  0.260000  0.694954  0.000000 T T T
  0.660000  0.463303  0.500000 T T T
  0.340000  0.463303  0.500000 T T T
  0.640000  0.656346  0.750000 T T T
  0.360000  0.656346  0.750000 T T T
  0.760000  0.501912  0.750000 T T T
  0.240000  0.501912  0.750000 T T T
  0.740000  0.694954  0.500000 T T T
  0.260000  0.694954  0.500000 T T T
  0.620000  0.849389  0.000000 T T T
  0.380000  0.849389  0.000000 T T T
  0.720000  0.887997  0.250000 T T T
  0.280000  0.887997  0.250000 T T T
  0.620000  0.849389  0.500000 T T T
  0.380000  0.849389  0.500000 T T T
  0.720000  0.887997  0.750000 T T T
  0.280000  0.887997  0.750000 T T T
  0.100000  0.154434  0.000000 T T T
  0.120000  0.347477  0.250000 T T T
  0.100000  0.154434  0.500000 T T T
  0.120000  0.347477  0.750000 T T T
  0.140000  0.540520  0.000000 T T T
  0.160000  0.733563  0.250000 T T T
  0.140000  0.540520  0.500000 T T T
  0.160000  0.733563  0.750000 T T T
  0.180000  0.926606  0.000000 T T T
  0.080000  0.965214  0.250000 T T T
  0.180000  0.926606  0.500000 T T T
