(Al)4  (Fm-3m)   Make VASP dir inner_rel
   1.00000000000000     
    18.8238633499999963    0.0000000000000000    0.0000000000000000
     0.0000000000000000   10.3669914799999994    0.0000000000000000
     0.0000000000000000    0.0000000000000000    8.0828000000000007
  91
Selective dynamics
Direct
  0.4990685911176918  0.0099751422561323 -0.0000369548705364   T   T   T
  0.5955169693590536  0.0419255958323929  0.2503562421100632   T   T   T
  0.4027269869248190  0.0418029120362887  0.2512628248665440   T   T   T
  0.5728449597596583  0.2401078658623133  0.0001583197852817   T   T   T
  0.4235856456947033  0.2376036396763685 -0.0000798570802277   T   T   T
  0.4992374984304033  0.0091147616074542  0.4999916269781595   T   T   T
  0.5954970424703335  0.0420492502574405  0.7496026277187441   T   T   T
  0.4026957606793138  0.0416422637912537  0.7486647494628659   T   T   T
  0.5742373217292954  0.2368221145377896  0.4999705327370049   T   T   T
  0.4250241415392632  0.2382696851695619  0.5001113997251430   T   T   T
  0.5660782611808401  0.4283417905524092  0.2520289115096027   T   T   T
  0.4322130587834558  0.4271078755826413  0.2462849491467597   T   T   T
  0.5018293951210016  0.6059725955283239  0.0000265673820391   T   T   T
  0.5660065390701552  0.4282663387637547  0.7481028195488776   T   T   T
  0.4321492501391362  0.4271669562666147  0.7537842343326026   T   T   T
  0.4968255630933521  0.6044854012798775  0.4999603495533276   T   T   T
  0.4993423875478042  0.8083777141097520  0.2503235408179459   T   T   T
  0.4992550545058374  0.8083621669386296  0.7497097955460056   T   T   T
  0.6966298816587325  0.0805803983892663 -0.0000576557356838   T   T   T
  0.3011630435993298  0.0794359537929977 -0.0000176709950768   T   T   T
  0.6810788705077397  0.2701570363916712  0.2508940786610000   T   T   T
  0.3165801292362648  0.2690710843704965  0.2518295394906170   T   T   T
  0.8022398273995717  0.1179605867549552  0.2506297162794385   T   T   T
  0.1947405106027528  0.1160048944224172  0.2503887269270560   T   T   T
  0.7839146173167685  0.3111305917092965  0.0000453599520301   T   T   T
  0.2133588965851130  0.3084781514388542 -0.0000481998192336   T   T   T
  0.6999876004252513  0.0772225263580331  0.5000107616972626   T   T   T
  0.2984783873066567  0.0771981917497448  0.4998820139060610   T   T   T
  0.6811373698240998  0.2701861454336417  0.7491169156141532   T   T   T
  0.3166232238569615  0.2690145143996636  0.7481243523171779   T   T   T
  0.8022544705033553  0.1179906499995134  0.7493211030242917   T   T   T
  0.1947413752405305  0.1159614518162059  0.7495800793347193   T   T   T
  0.7860676788960054  0.3151968653169085  0.4999573170577819   T   T   T
  0.2121095971391358  0.3148472174374966  0.5000778472734669   T   T   T
  0.6602191392007156  0.4700103312808055  0.0000458286591869   T   T   T
  0.3360652119918915  0.4688633070298423 -0.0000111488070319   T   T   T
  0.6300385457910594  0.6597020159192770  0.2497113495895129   T   T   T
  0.3687559612373923  0.6586722768933628  0.2481571382765241   T   T   T
  0.7659419433994048  0.5055508222614524  0.2510305553738040   T   T   T
  0.2327659843688313  0.5043541804020845  0.2518406001863709   T   T   T
  0.7416629649518746  0.6950409904284842 -0.0000413939951595   T   T   T
  0.2561389931148244  0.6946993690732545 -0.0001113993212178   T   T   T
  0.6608309984868350  0.4692645517714376  0.5000274459997178   T   T   T
  0.3393221192003446  0.4682525770462839  0.5000171192246750   T   T   T
  0.6301132770834835  0.6594583899541695  0.7503313276984217   T   T   T
  0.3688606295166070  0.6589368832026944  0.7517680562014550   T   T   T
  0.7659890735047004  0.5055308528919176  0.7490436431306076   T   T   T
  0.2328350820319381  0.5043706354150130  0.7481711505172599   T   T   T
  0.7394336947793254  0.6943065237893847  0.4999183655753691   T   T   T
  0.2602747868197964  0.6928933596076090  0.4999896293815294   T   T   T
  0.6107250889588121  0.8404917623277900 -0.0001779511827811   T   T   T
  0.3877669514519162  0.8397370721189062  0.0001730962043682   T   T   T
  0.7178628986335739  0.8848990028716319  0.2504043035319765   T   T   T
  0.2809120685080383  0.8841524237859324  0.2496788583089863   T   T   T
  0.6107284235917725  0.8402413150894993  0.5001883174026533   T   T   T
  0.3883069506440416  0.8394489781816540  0.4998298426270355   T   T   T
  0.7178805818016051  0.8849255426548296  0.7496046401372335   T   T   T
  0.2809053507354664  0.8840728946230293  0.7502715555047430   T   T   T
  0.9042671449823705  0.1531023292923173 -0.0000116851569924   T   T   T
  0.0928290598343795  0.1458391080358397  0.0000648616028705   T   T   T
  0.8905037941260098  0.3568715249305340  0.2505734585205707   T   T   T
  0.1081955054463892  0.3556031856336168  0.2497118137921055   T   T   T
 -0.0005937532133647  0.1834645652313973  0.2489698455262545   T   T   T
 -0.0007839390540746  0.3845729118782673 -0.0000567323358288   T   T   T
  0.9046719889947019  0.1532029545016760  0.5000551684636353   T   T   T
  0.0938990587488712  0.1518183155693730  0.4999934128566452   T   T   T
  0.8905697009619956  0.3568734602656336  0.7494396562032497   T   T   T
  0.1082623573209692  0.3556080992801746  0.7502225101585839   T   T   T
 -0.0004840314294113  0.1834457501012356  0.7510904855357243   T   T   T
 -0.0005431115987067  0.3798967029236363  0.4999740287454523   T   T   T
  0.8727055393731156  0.5378558417205128  0.0000020233700826   T   T   T
  0.1259949309231965  0.5374682482977422  0.0000165049902500   T   T   T
  0.8490466439773798  0.7277716205080443  0.2631135455621037   T   T   T
  0.1500300095694116  0.7268690516625808  0.2637306283642823   T   T   T
  0.0013038244093137  0.5887087741898731  0.2461248967524566   T   T   T
  0.9329837494462258  0.7708045249348577  0.0000221782932487   T   T   T
  0.0658708904059020  0.7720535432291705 -0.0000078808039098   T   T   T
  0.8826837827774254  0.5467679148816241  0.5000263345522817   T   T   T
  0.1156121225332936  0.5472994330088846  0.4999859078788699   T   T   T
  0.8490825122910730  0.7277924846574610  0.7368152858869814   T   T   T
  0.1500755964984088  0.7268966469061434  0.7362942503596089   T   T   T
  0.0012701371060097  0.5887289142066218  0.7539098000115418   T   T   T
  0.9770827723733126  0.7804938726912136  0.5000578745409096   T   T   T
  0.8188416289571160  0.9288206103852366 -0.0000710170995221   T   T   T
  0.1785801509715835  0.9282494740479935  0.0000590918456370   T   T   T
  0.9249713875590903  0.9575167051393039  0.2522081526542428   T   T   T
  0.0689274951347364  0.9484649118097467  0.2688171212530404   T   T   T
  0.8248943684657210  0.9212556009730614  0.5000373729823655   T   T   T
  0.1756605964140406  0.9196425876631100  0.4999388987908744   T   T   T
  0.9250315123984981  0.9575637782517561  0.7478639057360942   T   T   T
  0.0689799462463826  0.9484001647408672  0.7312104056857862   T   T   T
