(Al)4  (Fm-3m)                          
   1.00000000000000     
    11.3867605961746481    0.0100935929319685   -0.0017461789180479
     0.0041105062482931    6.3305944602789737   -0.0005256693932857
    -0.0010552304551614   -0.0005576642430577    7.7999169997776718
  31
Selective dynamics
Direct
  0.5019345932650742  0.0175829760695645  0.0006520403994781   T   T   T
  0.6636735094973117  0.1109682191450655  0.2513793324124630   T   T   T
  0.3401152630831258  0.1108122854476241  0.2511075383548811   T   T   T
  0.6184439172778161  0.4156727088432296  0.0002418050251483   T   T   T
  0.3851187631689628  0.4153887212175496 -0.0001859524528932   T   T   T
  0.5019543156572983  0.0222768028674391  0.4995860961936758   T   T   T
  0.6630890690558475  0.1102917140127428  0.7490023911072328   T   T   T
  0.3406660585141524  0.1107988480546549  0.7487039458358806   T   T   T
  0.6204078436148722  0.4152525758540072  0.5002066852785256   T   T   T
  0.3833194926506528  0.4148994205899267  0.5000801396891600   T   T   T
  0.5010528118138754  0.6898326771242470  0.2514510712888274   T   T   T
  0.5008875227786562  0.6908957192365554  0.7488466875236002   T   T   T
  0.8370634893031434  0.2009967356662049 -0.0000527463277626   T   T   T
  0.1666626403975973  0.2024229501339476 -0.0003078053141735   T   T   T
  0.7871327148401163  0.5113922708727170  0.2509808032765311   T   T   T
  0.2164817643339531  0.5117743326936781  0.2506351806100753   T   T   T
  0.0018472780130138  0.3021613774306900  0.2363868965448172   T   T   T
  0.8480658029030933  0.2079263877296121  0.5002867785682682   T   T   T
  0.1557761257815389  0.2088451939989139  0.4999840706392896   T   T   T
  0.7866728397021021  0.5111911455785193  0.7496279159167319   T   T   T
  0.2165086317296295  0.5123846496290956  0.7489165852252270   T   T   T
  0.0017832455741870  0.3031523761552533  0.7633899408164690   T   T   T
  0.0023321110388439  0.6187964159745492  0.4994891275571911   T   T   T
  0.7174211748596574  0.8033288883998937  0.0002884860820305   T   T   T
  0.2862889629366073  0.8037075502061446 -0.0001129476930773   T   T   T
  0.8846676057232509  0.8994513192552950  0.2526422354385952   T   T   T
  0.1190699618950538  0.9006604818100329  0.2519718479741300   T   T   T
  0.7146932949052647  0.8052908665236468  0.5000629271578538   T   T   T
  0.2889703722281027  0.8058691279260821  0.4997359030069835   T   T   T
  0.8844997845688742  0.8992782302084757  0.7477371024968049   T   T   T
  0.1189550388883279  0.9009340313446452  0.7472659173680343   T   T   T
 
  0.00000000E+00  0.00000000E+00  0.00000000E+00
  0.00000000E+00  0.00000000E+00  0.00000000E+00
  0.00000000E+00  0.00000000E+00  0.00000000E+00
  0.00000000E+00  0.00000000E+00  0.00000000E+00
  0.00000000E+00  0.00000000E+00  0.00000000E+00
  0.00000000E+00  0.00000000E+00  0.00000000E+00
  0.00000000E+00  0.00000000E+00  0.00000000E+00
  0.00000000E+00  0.00000000E+00  0.00000000E+00
  0.00000000E+00  0.00000000E+00  0.00000000E+00
  0.00000000E+00  0.00000000E+00  0.00000000E+00
  0.00000000E+00  0.00000000E+00  0.00000000E+00
  0.00000000E+00  0.00000000E+00  0.00000000E+00
  0.00000000E+00  0.00000000E+00  0.00000000E+00
  0.00000000E+00  0.00000000E+00  0.00000000E+00
  0.00000000E+00  0.00000000E+00  0.00000000E+00
  0.00000000E+00  0.00000000E+00  0.00000000E+00
  0.00000000E+00  0.00000000E+00  0.00000000E+00
  0.00000000E+00  0.00000000E+00  0.00000000E+00
  0.00000000E+00  0.00000000E+00  0.00000000E+00
  0.00000000E+00  0.00000000E+00  0.00000000E+00
  0.00000000E+00  0.00000000E+00  0.00000000E+00
  0.00000000E+00  0.00000000E+00  0.00000000E+00
  0.00000000E+00  0.00000000E+00  0.00000000E+00
  0.00000000E+00  0.00000000E+00  0.00000000E+00
  0.00000000E+00  0.00000000E+00  0.00000000E+00
  0.00000000E+00  0.00000000E+00  0.00000000E+00
  0.00000000E+00  0.00000000E+00  0.00000000E+00
  0.00000000E+00  0.00000000E+00  0.00000000E+00
  0.00000000E+00  0.00000000E+00  0.00000000E+00
  0.00000000E+00  0.00000000E+00  0.00000000E+00
  0.00000000E+00  0.00000000E+00  0.00000000E+00
