(Al)4  (Fm-3m) 
1.000000
  27.2404844609    0.0000000000    0.0000000000
   0.0000000000   14.5893515227    0.0000000000
   0.0000000000    0.0000000000    8.0827999115
190
Selective dynamics
Direct
   0.5000000000    0.0000000000    0.0000000000 T T T 
   0.5731707317    0.0227701025    0.2500000000 T T T 
   0.4268292683    0.0227701025    0.2500000000 T T T 
   0.5609756098    0.1593907177    0.0000000000 T T T 
   0.4390243902    0.1593907177    0.0000000000 T T T 
   0.5000000000    0.0000000000    0.5000000000 T T T 
   0.5731707317    0.0227701025    0.7500000000 T T T 
   0.4268292683    0.0227701025    0.7500000000 T T T 
   0.5609756098    0.1593907177    0.5000000000 T T T 
   0.4390243902    0.1593907177    0.5000000000 T T T 
   0.5487804878    0.2960113329    0.2500000000 T T T 
   0.4512195122    0.2960113329    0.2500000000 T T T 
   0.5365853659    0.4326319481    0.0000000000 T T T 
   0.4634146341    0.4326319481    0.0000000000 T T T 
   0.5487804878    0.2960113329    0.7500000000 T T T 
   0.4512195122    0.2960113329    0.7500000000 T T T 
   0.5365853659    0.4326319481    0.5000000000 T T T 
   0.4634146341    0.4326319481    0.5000000000 T T T 
   0.5243902439    0.5692525632    0.2500000000 T T T 
   0.4756097561    0.5692525632    0.2500000000 T T T 
   0.5121951220    0.7058731784    0.0000000000 T T T 
   0.4878048780    0.7058731784    0.0000000000 T T T 
   0.5243902439    0.5692525632    0.7500000000 T T T 
   0.4756097561    0.5692525632    0.7500000000 T T T 
   0.5121951220    0.7058731784    0.5000000000 T T T 
   0.4878048780    0.7058731784    0.5000000000 T T T 
   0.5000000000    0.8424937936    0.2500000000 T T T 
   0.5000000000    0.8424937936    0.7500000000 T T T 
   0.6463414634    0.0455402051    0.0000000000 T T T 
   0.3536585366    0.0455402051    0.0000000000 T T T 
   0.6341463415    0.1821608202    0.2500000000 T T T 
   0.3658536585    0.1821608202    0.2500000000 T T T 
   0.7195121951    0.0683103076    0.2500000000 T T T 
   0.2804878049    0.0683103076    0.2500000000 T T T 
   0.7073170732    0.2049309228    0.0000000000 T T T 
   0.2926829268    0.2049309228    0.0000000000 T T T 
   0.6463414634    0.0455402051    0.5000000000 T T T 
   0.3536585366    0.0455402051    0.5000000000 T T T 
   0.6341463415    0.1821608202    0.7500000000 T T T 
   0.3658536585    0.1821608202    0.7500000000 T T T 
   0.7195121951    0.0683103076    0.7500000000 T T T 
   0.2804878049    0.0683103076    0.7500000000 T T T 
   0.7073170732    0.2049309228    0.5000000000 T T T 
   0.2926829268    0.2049309228    0.5000000000 T T T 
   0.6219512195    0.3187814354    0.0000000000 T T T 
   0.3780487805    0.3187814354    0.0000000000 T T T 
   0.6097560976    0.4554020506    0.2500000000 T T T 
   0.3902439024    0.4554020506    0.2500000000 T T T 
   0.6951219512    0.3415515379    0.2500000000 T T T 
   0.3048780488    0.3415515379    0.2500000000 T T T 
   0.6829268293    0.4781721531    0.0000000000 T T T 
   0.3170731707    0.4781721531    0.0000000000 T T T 
   0.6219512195    0.3187814354    0.5000000000 T T T 
   0.3780487805    0.3187814354    0.5000000000 T T T 
   0.6097560976    0.4554020506    0.7500000000 T T T 
   0.3902439024    0.4554020506    0.7500000000 T T T 
   0.6951219512    0.3415515379    0.7500000000 T T T 
   0.3048780488    0.3415515379    0.7500000000 T T T 
   0.6829268293    0.4781721531    0.5000000000 T T T 
   0.3170731707    0.4781721531    0.5000000000 T T T 
   0.5975609756    0.5920226658    0.0000000000 T T T 
   0.4024390244    0.5920226658    0.0000000000 T T T 
   0.5853658537    0.7286432809    0.2500000000 T T T 
   0.4146341463    0.7286432809    0.2500000000 T T T 
   0.6707317073    0.6147927683    0.2500000000 T T T 
   0.3292682927    0.6147927683    0.2500000000 T T T 
   0.6585365854    0.7514133835    0.0000000000 T T T 
   0.3414634146    0.7514133835    0.0000000000 T T T 
   0.5975609756    0.5920226658    0.5000000000 T T T 
   0.4024390244    0.5920226658    0.5000000000 T T T 
   0.5853658537    0.7286432809    0.7500000000 T T T 
   0.4146341463    0.7286432809    0.7500000000 T T T 
   0.6707317073    0.6147927683    0.7500000000 T T T 
   0.3292682927    0.6147927683    0.7500000000 T T T 
   0.6585365854    0.7514133835    0.5000000000 T T T 
   0.3414634146    0.7514133835    0.5000000000 T T T 
   0.5731707317    0.8652638961    0.0000000000 T T T 
   0.4268292683    0.8652638961    0.0000000000 T T T 
   0.6463414634    0.8880339987    0.2500000000 T T T 
   0.3536585366    0.8880339987    0.2500000000 T T T 
   0.5731707317    0.8652638961    0.5000000000 T T T 
   0.4268292683    0.8652638961    0.5000000000 T T T 
   0.6463414634    0.8880339987    0.7500000000 T T T 
   0.3536585366    0.8880339987    0.7500000000 T T T 
   0.7926829268    0.0910804101    0.0000000000 T T T 
   0.2073170732    0.0910804101    0.0000000000 T T T 
   0.7804878049    0.2277010253    0.2500000000 T T T 
   0.2195121951    0.2277010253    0.2500000000 T T T 
   0.8658536585    0.1138505126    0.2500000000 T T T 
   0.1341463415    0.1138505126    0.2500000000 T T T 
   0.8536585366    0.2504711278    0.0000000000 T T T 
   0.1463414634    0.2504711278    0.0000000000 T T T 
   0.7926829268    0.0910804101    0.5000000000 T T T 
   0.2073170732    0.0910804101    0.5000000000 T T T 
   0.7804878049    0.2277010253    0.7500000000 T T T 
   0.2195121951    0.2277010253    0.7500000000 T T T 
   0.8658536585    0.1138505126    0.7500000000 T T T 
   0.1341463415    0.1138505126    0.7500000000 T T T 
   0.8536585366    0.2504711278    0.5000000000 T T T 
   0.1463414634    0.2504711278    0.5000000000 T T T 
   0.7682926829    0.3643216405    0.0000000000 T T T 
   0.2317073171    0.3643216405    0.0000000000 T T T 
   0.7560975610    0.5009422557    0.2500000000 T T T 
   0.2439024390    0.5009422557    0.2500000000 T T T 
   0.8414634146    0.3870917430    0.2500000000 T T T 
   0.1585365854    0.3870917430    0.2500000000 T T T 
   0.8292682927    0.5237123582    0.0000000000 T T T 
   0.1707317073    0.5237123582    0.0000000000 T T T 
   0.7682926829    0.3643216405    0.5000000000 T T T 
   0.2317073171    0.3643216405    0.5000000000 T T T 
   0.7560975610    0.5009422557    0.7500000000 T T T 
   0.2439024390    0.5009422557    0.7500000000 T T T 
   0.8414634146    0.3870917430    0.7500000000 T T T 
   0.1585365854    0.3870917430    0.7500000000 T T T 
   0.8292682927    0.5237123582    0.5000000000 T T T 
   0.1707317073    0.5237123582    0.5000000000 T T T 
   0.7439024390    0.6375628708    0.0000000000 T T T 
   0.2560975610    0.6375628708    0.0000000000 T T T 
   0.7317073171    0.7741834860    0.2500000000 T T T 
   0.2682926829    0.7741834860    0.2500000000 T T T 
   0.8170731707    0.6603329734    0.2500000000 T T T 
   0.1829268293    0.6603329734    0.2500000000 T T T 
   0.8048780488    0.7969535885    0.0000000000 T T T 
   0.1951219512    0.7969535885    0.0000000000 T T T 
   0.7439024390    0.6375628708    0.5000000000 T T T 
   0.2560975610    0.6375628708    0.5000000000 T T T 
   0.7317073171    0.7741834860    0.7500000000 T T T 
   0.2682926829    0.7741834860    0.7500000000 T T T 
   0.8170731707    0.6603329734    0.7500000000 T T T 
   0.1829268293    0.6603329734    0.7500000000 T T T 
   0.8048780488    0.7969535885    0.5000000000 T T T 
   0.1951219512    0.7969535885    0.5000000000 T T T 
   0.7195121951    0.9108041012    0.0000000000 T T T 
   0.2804878049    0.9108041012    0.0000000000 T T T 
   0.7926829268    0.9335742037    0.2500000000 T T T 
   0.2073170732    0.9335742037    0.2500000000 T T T 
   0.7195121951    0.9108041012    0.5000000000 T T T 
   0.2804878049    0.9108041012    0.5000000000 T T T 
   0.7926829268    0.9335742037    0.7500000000 T T T 
   0.2073170732    0.9335742037    0.7500000000 T T T 
   0.9390243902    0.1366206152    0.0000000000 T T T 
   0.0609756098    0.1366206152    0.0000000000 T T T 
   0.9268292683    0.2732412304    0.2500000000 T T T 
   0.0731707317    0.2732412304    0.2500000000 T T T 
   0.0000000000    0.2960113329    0.0000000000 T T T 
   0.9390243902    0.1366206152    0.5000000000 T T T 
   0.0609756098    0.1366206152    0.5000000000 T T T 
   0.9268292683    0.2732412304    0.7500000000 T T T 
   0.0731707317    0.2732412304    0.7500000000 T T T 
   0.0000000000    0.2960113329    0.5000000000 T T T 
   0.9146341463    0.4098618455    0.0000000000 T T T 
   0.0853658537    0.4098618455    0.0000000000 T T T 
   0.9024390244    0.5464824607    0.2500000000 T T T 
   0.0975609756    0.5464824607    0.2500000000 T T T 
   0.9878048780    0.4326319481    0.2500000000 T T T 
   0.0121951220    0.4326319481    0.2500000000 T T T 
   0.9756097561    0.5692525632    0.0000000000 T T T 
   0.0243902439    0.5692525632    0.0000000000 T T T 
   0.9146341463    0.4098618455    0.5000000000 T T T 
   0.0853658537    0.4098618455    0.5000000000 T T T 
   0.9024390244    0.5464824607    0.7500000000 T T T 
   0.0975609756    0.5464824607    0.7500000000 T T T 
   0.9878048780    0.4326319481    0.7500000000 T T T 
   0.0121951220    0.4326319481    0.7500000000 T T T 
   0.9756097561    0.5692525632    0.5000000000 T T T 
   0.0243902439    0.5692525632    0.5000000000 T T T 
   0.8902439024    0.6831030759    0.0000000000 T T T 
   0.1097560976    0.6831030759    0.0000000000 T T T 
   0.8780487805    0.8197236911    0.2500000000 T T T 
   0.1219512195    0.8197236911    0.2500000000 T T T 
   0.9634146341    0.7058731784    0.2500000000 T T T 
   0.0365853659    0.7058731784    0.2500000000 T T T 
   0.9512195122    0.8424937936    0.0000000000 T T T 
   0.0487804878    0.8424937936    0.0000000000 T T T 
   0.8902439024    0.6831030759    0.5000000000 T T T 
   0.1097560976    0.6831030759    0.5000000000 T T T 
   0.8780487805    0.8197236911    0.7500000000 T T T 
   0.1219512195    0.8197236911    0.7500000000 T T T 
   0.9634146341    0.7058731784    0.7500000000 T T T 
   0.0365853659    0.7058731784    0.7500000000 T T T 
   0.9512195122    0.8424937936    0.5000000000 T T T 
   0.0487804878    0.8424937936    0.5000000000 T T T 
   0.8658536585    0.9563443062    0.0000000000 T T T 
   0.1341463415    0.9563443062    0.0000000000 T T T 
   0.9390243902    0.9791144088    0.2500000000 T T T 
   0.0609756098    0.9791144088    0.2500000000 T T T 
   0.8658536585    0.9563443062    0.5000000000 T T T 
   0.1341463415    0.9563443062    0.5000000000 T T T 
   0.9390243902    0.9791144088    0.7500000000 T T T 
   0.0609756098    0.9791144088    0.7500000000 T T T 
