(Al)4  (Fm-3m) 
1.000000
  11.5020259163    0.0000000000    0.0000000000
   0.0000000000    6.2863187394    0.0000000000
   0.0000000000    0.0000000000    8.0827999115
36
Selective dynamics 
Direct
   0.5000000000    0.0000000000    0.0000000000 T T T 
   0.6666666667    0.1016495450    0.2500000000 T T T 
   0.3333333333    0.1016495450    0.2500000000 T T T 
   0.6111111111    0.4065981801    0.0000000000 T T T 
   0.3888888889    0.4065981801    0.0000000000 T T T 
   0.5000000000    0.0000000000    0.5000000000 T T T 
   0.6666666667    0.1016495450    0.7500000000 T T T 
   0.3333333333    0.1016495450    0.7500000000 T T T 
   0.6111111111    0.4065981801    0.5000000000 T T T 
   0.3888888889    0.4065981801    0.5000000000 T T T 
   0.5555555556    0.7115468152    0.2500000000 T T T 
   0.4444444444    0.7115468152    0.2500000000 T T T 
   0.5555555556    0.7115468152    0.7500000000 T T T 
   0.4444444444    0.7115468152    0.7500000000 T T T 
   0.8333333333    0.2032990901    0.0000000000 T T T 
   0.1666666667    0.2032990901    0.0000000000 T T T 
   0.7777777778    0.5082477252    0.2500000000 T T T 
   0.2222222222    0.5082477252    0.2500000000 T T T 
   0.0000000000    0.3049486351    0.2500000000 T T T 
   0.9444444444    0.6098972702    0.0000000000 T T T 
   0.0555555556    0.6098972702    0.0000000000 T T T 
   0.8333333333    0.2032990901    0.5000000000 T T T 
   0.1666666667    0.2032990901    0.5000000000 T T T 
   0.7777777778    0.5082477252    0.7500000000 T T T 
   0.2222222222    0.5082477252    0.7500000000 T T T 
   0.0000000000    0.3049486351    0.7500000000 T T T 
   0.9444444444    0.6098972702    0.5000000000 T T T 
   0.0555555556    0.6098972702    0.5000000000 T T T 
   0.7222222222    0.8131963603    0.0000000000 T T T 
   0.2777777778    0.8131963603    0.0000000000 T T T 
   0.8888888889    0.9148459053    0.2500000000 T T T 
   0.1111111111    0.9148459053    0.2500000000 T T T 
   0.7222222222    0.8131963603    0.5000000000 T T T 
   0.2777777778    0.8131963603    0.5000000000 T T T 
   0.8888888889    0.9148459053    0.7500000000 T T T 
   0.1111111111    0.9148459053    0.7500000000 T T T 
