(Al)4  (Fm-3m)
   1.00000000000000
  25.5600578716    0.0000000000    0.0000000000
   0.0000000000   12.7800289358    0.0000000000
   0.0000000000    0.0000000000    4.0414000000
  75
Direct
   0.5000000000    0.0000000000    0.0000000000 T T T
   0.5750000000    0.0500000000    0.5000000000 T T T
   0.4250000000    0.0500000000    0.5000000000 T T T
   0.5500000000    0.2000000000    0.0000000000 T T T
   0.4500000000    0.2000000000    0.0000000000 T T T
   0.5250000000    0.3500000000    0.5000000000 T T T
   0.4750000000    0.3500000000    0.5000000000 T T T
   0.5000000000    0.5000000000    0.0000000000 T T T
   0.6500000000    0.1000000000    0.0000000000 T T T
   0.3500000000    0.1000000000    0.0000000000 T T T
   0.6250000000    0.2500000000    0.5000000000 T T T
   0.3750000000    0.2500000000    0.5000000000 T T T
   0.7250000000    0.1500000000    0.5000000000 T T T
   0.2750000000    0.1500000000    0.5000000000 T T T
   0.7000000000    0.3000000000    0.0000000000 T T T
   0.3000000000    0.3000000000    0.0000000000 T T T
   0.6000000000    0.4000000000    0.0000000000 T T T
   0.4000000000    0.4000000000    0.0000000000 T T T
   0.5750000000    0.5500000000    0.5000000000 T T T
   0.4250000000    0.5500000000    0.5000000000 T T T
   0.6750000000    0.4500000000    0.5000000000 T T T
   0.3250000000    0.4500000000    0.5000000000 T T T
   0.6500000000    0.6000000000    0.0000000000 T T T
   0.3500000000    0.6000000000    0.0000000000 T T T
   0.5500000000    0.7000000000    0.0000000000 T T T
   0.4500000000    0.7000000000    0.0000000000 T T T
   0.5250000000    0.8500000000    0.5000000000 T T T
   0.4750000000    0.8500000000    0.5000000000 T T T
   0.6250000000    0.7500000000    0.5000000000 T T T
   0.3750000000    0.7500000000    0.5000000000 T T T
   0.6000000000    0.9000000000    0.0000000000 T T T
   0.4000000000    0.9000000000    0.0000000000 T T T
   0.8000000000    0.2000000000    0.0000000000 T T T
   0.2000000000    0.2000000000    0.0000000000 T T T
   0.7750000000    0.3500000000    0.5000000000 T T T
   0.2250000000    0.3500000000    0.5000000000 T T T
   0.8750000000    0.2500000000    0.5000000000 T T T
   0.1250000000    0.2500000000    0.5000000000 T T T
   0.8500000000    0.4000000000    0.0000000000 T T T
   0.1500000000    0.4000000000    0.0000000000 T T T
   0.7500000000    0.5000000000    0.0000000000 T T T
   0.2500000000    0.5000000000    0.0000000000 T T T
   0.7250000000    0.6500000000    0.5000000000 T T T
   0.2750000000    0.6500000000    0.5000000000 T T T
   0.8250000000    0.5500000000    0.5000000000 T T T
   0.1750000000    0.5500000000    0.5000000000 T T T
   0.8000000000    0.7000000000    0.0000000000 T T T
   0.2000000000    0.7000000000    0.0000000000 T T T
   0.7000000000    0.8000000000    0.0000000000 T T T
   0.3000000000    0.8000000000    0.0000000000 T T T
   0.6750000000    0.9500000000    0.5000000000 T T T
   0.3250000000    0.9500000000    0.5000000000 T T T
   0.7750000000    0.8500000000    0.5000000000 T T T
   0.2250000000    0.8500000000    0.5000000000 T T T
   0.9000000000    0.1000000000    0.0000000000 T T T
   0.1000000000    0.1000000000    0.0000000000 T T T
   0.9500000000    0.3000000000    0.0000000000 T T T
   0.0500000000    0.3000000000    0.0000000000 T T T
   0.9250000000    0.4500000000    0.5000000000 T T T
   0.0750000000    0.4500000000    0.5000000000 T T T
   0.0000000000    0.5000000000    0.0000000000 T T T
   0.9000000000    0.6000000000    0.0000000000 T T T
   0.1000000000    0.6000000000    0.0000000000 T T T
   0.8750000000    0.7500000000    0.5000000000 T T T
   0.1250000000    0.7500000000    0.5000000000 T T T
   0.9750000000    0.6500000000    0.5000000000 T T T
   0.0250000000    0.6500000000    0.5000000000 T T T
   0.9500000000    0.8000000000    0.0000000000 T T T
   0.0500000000    0.8000000000    0.0000000000 T T T
   0.8500000000    0.9000000000    0.0000000000 T T T
   0.1500000000    0.9000000000    0.0000000000 T T T
   0.9250000000    0.9500000000    0.5000000000 T T T
   0.0750000000    0.9500000000    0.5000000000 T T T
   0.9750000000    0.1500000000    0.5000000000 T T T
   0.0250000000    0.1500000000    0.5000000000 T T T
