(Al) Source:POSCAR;Expand:4,4,1;Shaped;Rotate:1/2,36.87[degrees];Mirrorred;Shaped2;Cut:0.83010-0.79057
1.000000
26.838061 0.000000 0.000000
0.000000 12.780029 0.000000
0.000000 0.000000 4.041400
81
Selective dynamics
Direct
  0.500000  0.000000  0.000000 T T T
  0.571429  0.050000  0.500000 T T T
  0.547619  0.200000  0.000000 T T T
  0.523810  0.350000  0.500000 T T T
  0.500000  0.500000  0.000000 T T T
  0.976190  1.000000  0.000000 T T T
  0.952381  0.150000  0.500000 T T T
  0.928571  0.300000  0.000000 T T T
  0.904762  0.450000  0.500000 T T T
  0.976190  0.500000  0.000000 T T T
  0.642857  0.100000  0.000000 T T T
  0.619048  0.250000  0.500000 T T T
  0.714286  0.150000  0.500000 T T T
  0.690476  0.300000  0.000000 T T T
  0.595238  0.400000  0.000000 T T T
  0.571429  0.550000  0.500000 T T T
  0.666667  0.450000  0.500000 T T T
  0.642857  0.600000  0.000000 T T T
  0.547619  0.700000  0.000000 T T T
  0.619048  0.750000  0.500000 T T T
  0.595238  0.900000  0.000000 T T T
  0.785714  0.200000  0.000000 T T T
  0.761905  0.350000  0.500000 T T T
  0.857143  0.250000  0.500000 T T T
  0.833333  0.400000  0.000000 T T T
  0.738095  0.500000  0.000000 T T T
  0.714286  0.650000  0.500000 T T T
  0.809524  0.550000  0.500000 T T T
  0.785714  0.700000  0.000000 T T T
  0.690476  0.800000  0.000000 T T T
  0.666667  0.950000  0.500000 T T T
  0.761905  0.850000  0.500000 T T T
  0.738095  0.000000  0.000000 T T T
  0.880952  0.100000  0.000000 T T T
  0.880952  0.600000  0.000000 T T T
  0.857143  0.750000  0.500000 T T T
  0.952381  0.650000  0.500000 T T T
  0.928571  0.800000  0.000000 T T T
  0.833333  0.900000  0.000000 T T T
  0.809524  0.050000  0.500000 T T T
  0.904762  0.950000  0.500000 T T T
  0.428571  0.050000  0.500000 T T T
  0.452381  0.200000  0.000000 T T T
  0.000000  0.850000  0.500000 T T T
  0.047619  0.150000  0.500000 T T T
  0.071429  0.300000  0.000000 T T T
  0.095238  0.450000  0.500000 T T T
  0.000000  0.350000  0.500000 T T T
  0.023810  0.500000  0.000000 T T T
  0.357143  0.100000  0.000000 T T T
  0.380952  0.250000  0.500000 T T T
  0.285714  0.150000  0.500000 T T T
  0.309524  0.300000  0.000000 T T T
  0.404762  0.400000  0.000000 T T T
  0.428571  0.550000  0.500000 T T T
  0.333333  0.450000  0.500000 T T T
  0.357143  0.600000  0.000000 T T T
  0.452381  0.700000  0.000000 T T T
  0.476190  0.850000  0.500000 T T T
  0.380952  0.750000  0.500000 T T T
  0.404762  0.900000  0.000000 T T T
  0.214286  0.200000  0.000000 T T T
  0.238095  0.350000  0.500000 T T T
  0.142857  0.250000  0.500000 T T T
  0.166667  0.400000  0.000000 T T T
  0.261905  0.500000  0.000000 T T T
  0.285714  0.650000  0.500000 T T T
  0.190476  0.550000  0.500000 T T T
  0.214286  0.700000  0.000000 T T T
  0.309524  0.800000  0.000000 T T T
  0.333333  0.950000  0.500000 T T T
  0.238095  0.850000  0.500000 T T T
  0.261905  0.000000  0.000000 T T T
  0.119048  0.100000  0.000000 T T T
  0.119048  0.600000  0.000000 T T T
  0.142857  0.750000  0.500000 T T T
  0.047619  0.650000  0.500000 T T T
  0.071429  0.800000  0.000000 T T T
  0.166667  0.900000  0.000000 T T T
  0.190476  0.050000  0.500000 T T T
  0.095238  0.950000  0.500000 T T T
