(Al)4  (Fm-3m) 
1.000000
  23.7775121961    2.3777512196    0.0000000000
  -3.9629186993    9.9072967484    0.0000000000
   0.0000000000    0.0000000000   12.1241998673
192
Direct
   0.5000000000    0.0000000000    0.0000000000 T T T 
   0.5000000000    0.2000000000    0.1666666667 T T T 
   0.5833333333    0.0000000000    0.1666666667 T T T 
   0.5833333333    0.2000000000    0.0000000000 T T T 
   0.5000000000    0.0000000000    0.3333333333 T T T 
   0.5000000000    0.2000000000    0.5000000000 T T T 
   0.5833333333    0.0000000000    0.5000000000 T T T 
   0.5833333333    0.2000000000    0.3333333333 T T T 
   0.5000000000    0.0000000000    0.6666666667 T T T 
   0.5000000000    0.2000000000    0.8333333333 T T T 
   0.5833333333    0.0000000000    0.8333333333 T T T 
   0.5833333333    0.2000000000    0.6666666667 T T T 
   0.5000000000    0.4000000000    0.0000000000 T T T 
   0.5000000000    0.6000000000    0.1666666667 T T T 
   0.5833333333    0.4000000000    0.1666666667 T T T 
   0.5833333333    0.6000000000    0.0000000000 T T T 
   0.5000000000    0.4000000000    0.3333333333 T T T 
   0.5000000000    0.6000000000    0.5000000000 T T T 
   0.5833333333    0.4000000000    0.5000000000 T T T 
   0.5833333333    0.6000000000    0.3333333333 T T T 
   0.5000000000    0.4000000000    0.6666666667 T T T 
   0.5000000000    0.6000000000    0.8333333333 T T T 
   0.5833333333    0.4000000000    0.8333333333 T T T 
   0.5833333333    0.6000000000    0.6666666667 T T T 
   0.5000000000    0.8000000000    0.0000000000 T T T 
   0.5000000000    1.0000000000    0.1666666667 T T T 
   0.5833333333    0.8000000000    0.1666666667 T T T 
   0.5833333333    1.0000000000    0.0000000000 T T T 
   0.5000000000    0.8000000000    0.3333333333 T T T 
   0.5000000000    1.0000000000    0.5000000000 T T T 
   0.5833333333    0.8000000000    0.5000000000 T T T 
   0.5833333333    1.0000000000    0.3333333333 T T T 
   0.5000000000    0.8000000000    0.6666666667 T T T 
   0.5000000000    1.0000000000    0.8333333333 T T T 
   0.5833333333    0.8000000000    0.8333333333 T T T 
   0.5833333333    1.0000000000    0.6666666667 T T T 
   0.5000000000    1.2000000000    0.0000000000 T T T 
   0.5000000000    1.4000000000    0.1666666667 T T T 
   0.5833333333    1.2000000000    0.1666666667 T T T 
   0.5833333333    1.4000000000    0.0000000000 T T T 
   0.5000000000    1.2000000000    0.3333333333 T T T 
   0.5000000000    1.4000000000    0.5000000000 T T T 
   0.5833333333    1.2000000000    0.5000000000 T T T 
   0.5833333333    1.4000000000    0.3333333333 T T T 
   0.5000000000    1.2000000000    0.6666666667 T T T 
   0.5000000000    1.4000000000    0.8333333333 T T T 
   0.5833333333    1.2000000000    0.8333333333 T T T 
   0.5833333333    1.4000000000    0.6666666667 T T T 
   0.6666666667    0.0000000000    0.0000000000 T T T 
   0.6666666667    0.2000000000    0.1666666667 T T T 
   0.7500000000    0.0000000000    0.1666666667 T T T 
   0.7500000000    0.2000000000    0.0000000000 T T T 
   0.6666666667    0.0000000000    0.3333333333 T T T 
   0.6666666667    0.2000000000    0.5000000000 T T T 
   0.7500000000    0.0000000000    0.5000000000 T T T 
   0.7500000000    0.2000000000    0.3333333333 T T T 
   0.6666666667    0.0000000000    0.6666666667 T T T 
   0.6666666667    0.2000000000    0.8333333333 T T T 
   0.7500000000    0.0000000000    0.8333333333 T T T 
   0.7500000000    0.2000000000    0.6666666667 T T T 
   0.6666666667    0.4000000000    0.0000000000 T T T 
   0.6666666667    0.6000000000    0.1666666667 T T T 
   0.7500000000    0.4000000000    0.1666666667 T T T 
   0.7500000000    0.6000000000    0.0000000000 T T T 
   0.6666666667    0.4000000000    0.3333333333 T T T 
   0.6666666667    0.6000000000    0.5000000000 T T T 
   0.7500000000    0.4000000000    0.5000000000 T T T 
   0.7500000000    0.6000000000    0.3333333333 T T T 
   0.6666666667    0.4000000000    0.6666666667 T T T 
   0.6666666667    0.6000000000    0.8333333333 T T T 
   0.7500000000    0.4000000000    0.8333333333 T T T 
   0.7500000000    0.6000000000    0.6666666667 T T T 
   0.6666666667    0.8000000000    0.0000000000 T T T 
   0.6666666667    1.0000000000    0.1666666667 T T T 
   0.7500000000    0.8000000000    0.1666666667 T T T 
   0.7500000000    1.0000000000    0.0000000000 T T T 
   0.6666666667    0.8000000000    0.3333333333 T T T 
   0.6666666667    1.0000000000    0.5000000000 T T T 
   0.7500000000    0.8000000000    0.5000000000 T T T 
   0.7500000000    1.0000000000    0.3333333333 T T T 
   0.6666666667    0.8000000000    0.6666666667 T T T 
   0.6666666667    1.0000000000    0.8333333333 T T T 
   0.7500000000    0.8000000000    0.8333333333 T T T 
   0.7500000000    1.0000000000    0.6666666667 T T T 
   0.6666666667    1.2000000000    0.0000000000 T T T 
   0.6666666667    1.4000000000    0.1666666667 T T T 
   0.7500000000    1.2000000000    0.1666666667 T T T 
   0.7500000000    1.4000000000    0.0000000000 T T T 
   0.6666666667    1.2000000000    0.3333333333 T T T 
   0.6666666667    1.4000000000    0.5000000000 T T T 
   0.7500000000    1.2000000000    0.5000000000 T T T 
   0.7500000000    1.4000000000    0.3333333333 T T T 
   0.6666666667    1.2000000000    0.6666666667 T T T 
   0.6666666667    1.4000000000    0.8333333333 T T T 
   0.7500000000    1.2000000000    0.8333333333 T T T 
   0.7500000000    1.4000000000    0.6666666667 T T T 
   0.8333333333    0.0000000000    0.0000000000 T T T 
   0.8333333333    0.2000000000    0.1666666667 T T T 
   0.9166666667    0.0000000000    0.1666666667 T T T 
   0.9166666667    0.2000000000    0.0000000000 T T T 
   0.8333333333    0.0000000000    0.3333333333 T T T 
   0.8333333333    0.2000000000    0.5000000000 T T T 
   0.9166666667    0.0000000000    0.5000000000 T T T 
   0.9166666667    0.2000000000    0.3333333333 T T T 
   0.8333333333    0.0000000000    0.6666666667 T T T 
   0.8333333333    0.2000000000    0.8333333333 T T T 
   0.9166666667    0.0000000000    0.8333333333 T T T 
   0.9166666667    0.2000000000    0.6666666667 T T T 
   0.8333333333    0.4000000000    0.0000000000 T T T 
   0.8333333333    0.6000000000    0.1666666667 T T T 
   0.9166666667    0.4000000000    0.1666666667 T T T 
   0.9166666667    0.6000000000    0.0000000000 T T T 
   0.8333333333    0.4000000000    0.3333333333 T T T 
   0.8333333333    0.6000000000    0.5000000000 T T T 
   0.9166666667    0.4000000000    0.5000000000 T T T 
   0.9166666667    0.6000000000    0.3333333333 T T T 
   0.8333333333    0.4000000000    0.6666666667 T T T 
   0.8333333333    0.6000000000    0.8333333333 T T T 
   0.9166666667    0.4000000000    0.8333333333 T T T 
   0.9166666667    0.6000000000    0.6666666667 T T T 
   0.8333333333    0.8000000000    0.0000000000 T T T 
   0.8333333333    1.0000000000    0.1666666667 T T T 
   0.9166666667    0.8000000000    0.1666666667 T T T 
   0.9166666667    1.0000000000    0.0000000000 T T T 
   0.8333333333    0.8000000000    0.3333333333 T T T 
   0.8333333333    1.0000000000    0.5000000000 T T T 
   0.9166666667    0.8000000000    0.5000000000 T T T 
   0.9166666667    1.0000000000    0.3333333333 T T T 
   0.8333333333    0.8000000000    0.6666666667 T T T 
   0.8333333333    1.0000000000    0.8333333333 T T T 
   0.9166666667    0.8000000000    0.8333333333 T T T 
   0.9166666667    1.0000000000    0.6666666667 T T T 
   0.8333333333    1.2000000000    0.0000000000 T T T 
   0.8333333333    1.4000000000    0.1666666667 T T T 
   0.9166666667    1.2000000000    0.1666666667 T T T 
   0.9166666667    1.4000000000    0.0000000000 T T T 
   0.8333333333    1.2000000000    0.3333333333 T T T 
   0.8333333333    1.4000000000    0.5000000000 T T T 
   0.9166666667    1.2000000000    0.5000000000 T T T 
   0.9166666667    1.4000000000    0.3333333333 T T T 
   0.8333333333    1.2000000000    0.6666666667 T T T 
   0.8333333333    1.4000000000    0.8333333333 T T T 
   0.9166666667    1.2000000000    0.8333333333 T T T 
   0.9166666667    1.4000000000    0.6666666667 T T T 
   1.0000000000    0.0000000000    0.0000000000 T T T 
   1.0000000000    0.2000000000    0.1666666667 T T T 
   1.0833333333    0.0000000000    0.1666666667 T T T 
   1.0833333333    0.2000000000    0.0000000000 T T T 
   1.0000000000    0.0000000000    0.3333333333 T T T 
   1.0000000000    0.2000000000    0.5000000000 T T T 
   1.0833333333    0.0000000000    0.5000000000 T T T 
   1.0833333333    0.2000000000    0.3333333333 T T T 
   1.0000000000    0.0000000000    0.6666666667 T T T 
   1.0000000000    0.2000000000    0.8333333333 T T T 
   1.0833333333    0.0000000000    0.8333333333 T T T 
   1.0833333333    0.2000000000    0.6666666667 T T T 
   1.0000000000    0.4000000000    0.0000000000 T T T 
   1.0000000000    0.6000000000    0.1666666667 T T T 
   1.0833333333    0.4000000000    0.1666666667 T T T 
   1.0833333333    0.6000000000    0.0000000000 T T T 
   1.0000000000    0.4000000000    0.3333333333 T T T 
   1.0000000000    0.6000000000    0.5000000000 T T T 
   1.0833333333    0.4000000000    0.5000000000 T T T 
   1.0833333333    0.6000000000    0.3333333333 T T T 
   1.0000000000    0.4000000000    0.6666666667 T T T 
   1.0000000000    0.6000000000    0.8333333333 T T T 
   1.0833333333    0.4000000000    0.8333333333 T T T 
   1.0833333333    0.6000000000    0.6666666667 T T T 
   1.0000000000    0.8000000000    0.0000000000 T T T 
   1.0000000000    1.0000000000    0.1666666667 T T T 
   1.0833333333    0.8000000000    0.1666666667 T T T 
   1.0833333333    1.0000000000    0.0000000000 T T T 
   1.0000000000    0.8000000000    0.3333333333 T T T 
   1.0000000000    1.0000000000    0.5000000000 T T T 
   1.0833333333    0.8000000000    0.5000000000 T T T 
   1.0833333333    1.0000000000    0.3333333333 T T T 
   1.0000000000    0.8000000000    0.6666666667 T T T 
   1.0000000000    1.0000000000    0.8333333333 T T T 
   1.0833333333    0.8000000000    0.8333333333 T T T 
   1.0833333333    1.0000000000    0.6666666667 T T T 
   1.0000000000    1.2000000000    0.0000000000 T T T 
   1.0000000000    1.4000000000    0.1666666667 T T T 
   1.0833333333    1.2000000000    0.1666666667 T T T 
   1.0833333333    1.4000000000    0.0000000000 T T T 
   1.0000000000    1.2000000000    0.3333333333 T T T 
   1.0000000000    1.4000000000    0.5000000000 T T T 
   1.0833333333    1.2000000000    0.5000000000 T T T 
   1.0833333333    1.4000000000    0.3333333333 T T T 
   1.0000000000    1.2000000000    0.6666666667 T T T 
   1.0000000000    1.4000000000    0.8333333333 T T T 
   1.0833333333    1.2000000000    0.8333333333 T T T 
   1.0833333333    1.4000000000    0.6666666667 T T T 
