(Al)4  (Fm-3m) 
1.000000
  19.8145934967    0.0000000000    0.0000000000
   0.0000000000   10.2643479901    0.0000000000
   0.0000000000    0.0000000000    8.0827999115
100
Selective dynamics
Direct
   0.5000000000    0.0000000000    0.0000000000 T T T 
   0.6000000000    0.0386085770    0.2500000000 T T T 
   0.4000000000    0.0386085770    0.2500000000 T T T 
   0.5800000000    0.2316514621    0.0000000000 T T T 
   0.4200000000    0.2316514621    0.0000000000 T T T 
   0.5000000000    0.0000000000    0.5000000000 T T T 
   0.6000000000    0.0386085770    0.7500000000 T T T 
   0.4000000000    0.0386085770    0.7500000000 T T T 
   0.5800000000    0.2316514621    0.5000000000 T T T 
   0.4200000000    0.2316514621    0.5000000000 T T T 
   0.5600000000    0.4246943472    0.2500000000 T T T 
   0.4400000000    0.4246943472    0.2500000000 T T T 
   0.5400000000    0.6177372323    0.0000000000 T T T 
   0.4600000000    0.6177372323    0.0000000000 T T T 
   0.5600000000    0.4246943472    0.7500000000 T T T 
   0.4400000000    0.4246943472    0.7500000000 T T T 
   0.5400000000    0.6177372323    0.5000000000 T T T 
   0.4600000000    0.6177372323    0.5000000000 T T T 
   0.5200000000    0.8107801174    0.2500000000 T T T 
   0.4800000000    0.8107801174    0.2500000000 T T T 
   0.5200000000    0.8107801174    0.7500000000 T T T 
   0.4800000000    0.8107801174    0.7500000000 T T T 
   0.7000000000    0.0772171540    0.0000000000 T T T 
   0.3000000000    0.0772171540    0.0000000000 T T T 
   0.6800000000    0.2702600391    0.2500000000 T T T 
   0.3200000000    0.2702600391    0.2500000000 T T T 
   0.8000000000    0.1158257311    0.2500000000 T T T 
   0.2000000000    0.1158257311    0.2500000000 T T T 
   0.7800000000    0.3088686162    0.0000000000 T T T 
   0.2200000000    0.3088686162    0.0000000000 T T T 
   0.7000000000    0.0772171540    0.5000000000 T T T 
   0.3000000000    0.0772171540    0.5000000000 T T T 
   0.6800000000    0.2702600391    0.7500000000 T T T 
   0.3200000000    0.2702600391    0.7500000000 T T T 
   0.8000000000    0.1158257311    0.7500000000 T T T 
   0.2000000000    0.1158257311    0.7500000000 T T T 
   0.7800000000    0.3088686162    0.5000000000 T T T 
   0.2200000000    0.3088686162    0.5000000000 T T T 
   0.6600000000    0.4633029242    0.0000000000 T T T 
   0.3400000000    0.4633029242    0.0000000000 T T T 
   0.6400000000    0.6563458093    0.2500000000 T T T 
   0.3600000000    0.6563458093    0.2500000000 T T T 
   0.7600000000    0.5019115013    0.2500000000 T T T 
   0.2400000000    0.5019115013    0.2500000000 T T T 
   0.7400000000    0.6949543864    0.0000000000 T T T 
   0.2600000000    0.6949543864    0.0000000000 T T T 
   0.6600000000    0.4633029242    0.5000000000 T T T 
   0.3400000000    0.4633029242    0.5000000000 T T T 
   0.6400000000    0.6563458093    0.7500000000 T T T 
   0.3600000000    0.6563458093    0.7500000000 T T T 
   0.7600000000    0.5019115013    0.7500000000 T T T 
   0.2400000000    0.5019115013    0.7500000000 T T T 
   0.7400000000    0.6949543864    0.5000000000 T T T 
   0.2600000000    0.6949543864    0.5000000000 T T T 
   0.6200000000    0.8493886944    0.0000000000 T T T 
   0.3800000000    0.8493886944    0.0000000000 T T T 
   0.7200000000    0.8879972715    0.2500000000 T T T 
   0.2800000000    0.8879972715    0.2500000000 T T T 
   0.6200000000    0.8493886944    0.5000000000 T T T 
   0.3800000000    0.8493886944    0.5000000000 T T T 
   0.7200000000    0.8879972715    0.7500000000 T T T 
   0.2800000000    0.8879972715    0.7500000000 T T T 
   0.9000000000    0.1544343081    0.0000000000 T T T 
   0.1000000000    0.1544343081    0.0000000000 T T T 
   0.8800000000    0.3474771932    0.2500000000 T T T 
   0.1200000000    0.3474771932    0.2500000000 T T T 
   0.0000000000    0.1930428851    0.2500000000 T T T 
   0.9800000000    0.3860857702    0.0000000000 T T T 
   0.0200000000    0.3860857702    0.0000000000 T T T 
   0.9000000000    0.1544343081    0.5000000000 T T T 
   0.1000000000    0.1544343081    0.5000000000 T T T 
   0.8800000000    0.3474771932    0.7500000000 T T T 
   0.1200000000    0.3474771932    0.7500000000 T T T 
   0.0000000000    0.1930428851    0.7500000000 T T T 
   0.9800000000    0.3860857702    0.5000000000 T T T 
   0.0200000000    0.3860857702    0.5000000000 T T T 
   0.8600000000    0.5405200783    0.0000000000 T T T 
   0.1400000000    0.5405200783    0.0000000000 T T T 
   0.8400000000    0.7335629634    0.2500000000 T T T 
   0.1600000000    0.7335629634    0.2500000000 T T T 
   0.9600000000    0.5791286553    0.2500000000 T T T 
   0.0400000000    0.5791286553    0.2500000000 T T T 
   0.9400000000    0.7721715404    0.0000000000 T T T 
   0.0600000000    0.7721715404    0.0000000000 T T T 
   0.8600000000    0.5405200783    0.5000000000 T T T 
   0.1400000000    0.5405200783    0.5000000000 T T T 
   0.8400000000    0.7335629634    0.7500000000 T T T 
   0.1600000000    0.7335629634    0.7500000000 T T T 
   0.9600000000    0.5791286553    0.7500000000 T T T 
   0.0400000000    0.5791286553    0.7500000000 T T T 
   0.9400000000    0.7721715404    0.5000000000 T T T 
   0.0600000000    0.7721715404    0.5000000000 T T T 
   0.8200000000    0.9266058485    0.0000000000 T T T 
   0.1800000000    0.9266058485    0.0000000000 T T T 
   0.9200000000    0.9652144255    0.2500000000 T T T 
   0.0800000000    0.9652144255    0.2500000000 T T T 
   0.8200000000    0.9266058485    0.5000000000 T T T 
   0.1800000000    0.9266058485    0.5000000000 T T T 
   0.9200000000    0.9652144255    0.7500000000 T T T 
   0.0800000000    0.9652144255    0.7500000000 T T T 
