(Al)4  (Fm-3m) 
1.000000
  15.8516747974    1.5851674797    0.0000000000
  -2.3777512196    5.9443780490    0.0000000000
   0.0000000000    0.0000000000    8.0827999115
72
Direct
   0.5000000000    0.0000000000    0.0000000000 T T T 
   0.5000000000    0.3333333333    0.2500000000 T T T 
   0.6250000000    0.0000000000    0.2500000000 T T T 
   0.6250000000    0.3333333333    0.0000000000 T T T 
   0.5000000000    0.0000000000    0.5000000000 T T T 
   0.5000000000    0.3333333333    0.7500000000 T T T 
   0.6250000000    0.0000000000    0.7500000000 T T T 
   0.6250000000    0.3333333333    0.5000000000 T T T 
   0.5000000000    0.6666666667    0.0000000000 T T T 
   0.5000000000    1.0000000000    0.2500000000 T T T 
   0.6250000000    0.6666666667    0.2500000000 T T T 
   0.6250000000    1.0000000000    0.0000000000 T T T 
   0.5000000000    0.6666666667    0.5000000000 T T T 
   0.5000000000    1.0000000000    0.7500000000 T T T 
   0.6250000000    0.6666666667    0.7500000000 T T T 
   0.6250000000    1.0000000000    0.5000000000 T T T 
   0.5000000000    1.3333333333    0.0000000000 T T T 
   0.5000000000    1.6666666667    0.2500000000 T T T 
   0.6250000000    1.3333333333    0.2500000000 T T T 
   0.6250000000    1.6666666667    0.0000000000 T T T 
   0.5000000000    1.3333333333    0.5000000000 T T T 
   0.5000000000    1.6666666667    0.7500000000 T T T 
   0.6250000000    1.3333333333    0.7500000000 T T T 
   0.6250000000    1.6666666667    0.5000000000 T T T 
   0.7500000000    0.0000000000    0.0000000000 T T T 
   0.7500000000    0.3333333333    0.2500000000 T T T 
   0.8750000000    0.0000000000    0.2500000000 T T T 
   0.8750000000    0.3333333333    0.0000000000 T T T 
   0.7500000000    0.0000000000    0.5000000000 T T T 
   0.7500000000    0.3333333333    0.7500000000 T T T 
   0.8750000000    0.0000000000    0.7500000000 T T T 
   0.8750000000    0.3333333333    0.5000000000 T T T 
   0.7500000000    0.6666666667    0.0000000000 T T T 
   0.7500000000    1.0000000000    0.2500000000 T T T 
   0.8750000000    0.6666666667    0.2500000000 T T T 
   0.8750000000    1.0000000000    0.0000000000 T T T 
   0.7500000000    0.6666666667    0.5000000000 T T T 
   0.7500000000    1.0000000000    0.7500000000 T T T 
   0.8750000000    0.6666666667    0.7500000000 T T T 
   0.8750000000    1.0000000000    0.5000000000 T T T 
   0.7500000000    1.3333333333    0.0000000000 T T T 
   0.7500000000    1.6666666667    0.2500000000 T T T 
   0.8750000000    1.3333333333    0.2500000000 T T T 
   0.8750000000    1.6666666667    0.0000000000 T T T 
   0.7500000000    1.3333333333    0.5000000000 T T T 
   0.7500000000    1.6666666667    0.7500000000 T T T 
   0.8750000000    1.3333333333    0.7500000000 T T T 
   0.8750000000    1.6666666667    0.5000000000 T T T 
   1.0000000000    0.0000000000    0.0000000000 T T T 
   1.0000000000    0.3333333333    0.2500000000 T T T 
   1.1250000000    0.0000000000    0.2500000000 T T T 
   1.1250000000    0.3333333333    0.0000000000 T T T 
   1.0000000000    0.0000000000    0.5000000000 T T T 
   1.0000000000    0.3333333333    0.7500000000 T T T 
   1.1250000000    0.0000000000    0.7500000000 T T T 
   1.1250000000    0.3333333333    0.5000000000 T T T 
   1.0000000000    0.6666666667    0.0000000000 T T T 
   1.0000000000    1.0000000000    0.2500000000 T T T 
   1.1250000000    0.6666666667    0.2500000000 T T T 
   1.1250000000    1.0000000000    0.0000000000 T T T 
   1.0000000000    0.6666666667    0.5000000000 T T T 
   1.0000000000    1.0000000000    0.7500000000 T T T 
   1.1250000000    0.6666666667    0.7500000000 T T T 
   1.1250000000    1.0000000000    0.5000000000 T T T 
   1.0000000000    1.3333333333    0.0000000000 T T T 
   1.0000000000    1.6666666667    0.2500000000 T T T 
   1.1250000000    1.3333333333    0.2500000000 T T T 
   1.1250000000    1.6666666667    0.0000000000 T T T 
   1.0000000000    1.3333333333    0.5000000000 T T T 
   1.0000000000    1.6666666667    0.7500000000 T T T 
   1.1250000000    1.3333333333    0.7500000000 T T T 
   1.1250000000    1.6666666667    0.5000000000 T T T 
