(Al)4  (Fm-3m) 
1.000000
   7.5178797853    0.0000000000    0.0000000000
   0.0000000000    8.3275500891    0.0000000000
   0.0000000000    0.0000000000    8.0827999115
30
Direct
   0.5000000000    0.0000000000    0.0000000000 T T T 
   0.7372096210    0.1665581750    0.0000000000 T T T 
   0.2627903790    0.1665581750    0.0000000000 T T T 
   0.6844963719    0.4044984249    0.0000000000 T T T 
   0.3155036281    0.4044984249    0.0000000000 T T T 
   0.5000000000    0.0000000000    0.5000000000 T T T 
   0.7372096210    0.1665581750    0.5000000000 T T T 
   0.2627903790    0.1665581750    0.5000000000 T T T 
   0.6844963719    0.4044984249    0.5000000000 T T T 
   0.3155036281    0.4044984249    0.5000000000 T T T 
   0.6317831228    0.6424386749    0.0000000000 T T T 
   0.3682168772    0.6424386749    0.0000000000 T T T 
   0.5790698737    0.8803789248    0.0000000000 T T T 
   0.4209301263    0.8803789248    0.0000000000 T T T 
   0.6317831228    0.6424386749    0.5000000000 T T T 
   0.3682168772    0.6424386749    0.5000000000 T T T 
   0.5790698737    0.8803789248    0.5000000000 T T T 
   0.4209301263    0.8803789248    0.5000000000 T T T 
   0.9744192420    0.3331163499    0.0000000000 T T T 
   0.0255807580    0.3331163499    0.0000000000 T T T 
   0.9744192420    0.3331163499    0.5000000000 T T T 
   0.0255807580    0.3331163499    0.5000000000 T T T 
   0.9217059929    0.5710565999    0.0000000000 T T T 
   0.0782940071    0.5710565999    0.0000000000 T T T 
   0.8689927438    0.8089968498    0.0000000000 T T T 
   0.1310072562    0.8089968498    0.0000000000 T T T 
   0.9217059929    0.5710565999    0.5000000000 T T T 
   0.0782940071    0.5710565999    0.5000000000 T T T 
   0.8689927438    0.8089968498    0.5000000000 T T T 
   0.1310072562    0.8089968498    0.5000000000 T T T 
