(Al)4  (Fm-3m) 
   1.00000000000000     
  1.4142135623730950  0.0000000000000000  0.0000000000000000 
  0.000000000000000   2.828427124746190   0.0000000000000000
  0.000000000000000   0.0000000000000000  1.0000000000000000
   4
Direct
  0.0000000000000000  0.0000000000000000  0.0000000000000000
  0.0000000000000000  0.5000000000000000  0.0000000000000000
  0.5000000000000000  0.2500000000000000  0.5000000000000000
  0.5000000000000000  0.7500000000000000  0.5000000000000000


