(Al)4  (Fm-3m) 
1.000000
  24.2483997345    0.0000000000    0.0000000000
   0.0000000000   12.1241998673    0.0000000000
   0.0000000000    0.0000000000    8.0827999115
132
Direct
   0.5000000000    0.0000000000    0.0000000000 T T T 
   0.5000000000    0.1666666667    0.2500000000 T T T 
   0.5833333333    0.0000000000    0.2500000000 T T T 
   0.4166666667    0.0000000000    0.2500000000 T T T 
   0.5833333333    0.1666666667    0.0000000000 T T T 
   0.4166666667    0.1666666667    0.0000000000 T T T 
   0.5000000000    0.0000000000    0.5000000000 T T T 
   0.5000000000    0.1666666667    0.7500000000 T T T 
   0.5833333333    0.0000000000    0.7500000000 T T T 
   0.4166666667    0.0000000000    0.7500000000 T T T 
   0.5833333333    0.1666666667    0.5000000000 T T T 
   0.4166666667    0.1666666667    0.5000000000 T T T 
   0.5000000000    0.3333333333    0.0000000000 T T T 
   0.5000000000    0.5000000000    0.2500000000 T T T 
   0.5833333333    0.3333333333    0.2500000000 T T T 
   0.4166666667    0.3333333333    0.2500000000 T T T 
   0.5833333333    0.5000000000    0.0000000000 T T T 
   0.4166666667    0.5000000000    0.0000000000 T T T 
   0.5000000000    0.3333333333    0.5000000000 T T T 
   0.5000000000    0.5000000000    0.7500000000 T T T 
   0.5833333333    0.3333333333    0.7500000000 T T T 
   0.4166666667    0.3333333333    0.7500000000 T T T 
   0.5833333333    0.5000000000    0.5000000000 T T T 
   0.4166666667    0.5000000000    0.5000000000 T T T 
   0.5000000000    0.6666666667    0.0000000000 T T T 
   0.5000000000    0.8333333333    0.2500000000 T T T 
   0.5833333333    0.6666666667    0.2500000000 T T T 
   0.4166666667    0.6666666667    0.2500000000 T T T 
   0.5833333333    0.8333333333    0.0000000000 T T T 
   0.4166666667    0.8333333333    0.0000000000 T T T 
   0.5000000000    0.6666666667    0.5000000000 T T T 
   0.5000000000    0.8333333333    0.7500000000 T T T 
   0.5833333333    0.6666666667    0.7500000000 T T T 
   0.4166666667    0.6666666667    0.7500000000 T T T 
   0.5833333333    0.8333333333    0.5000000000 T T T 
   0.4166666667    0.8333333333    0.5000000000 T T T 
   0.6666666667    0.0000000000    0.0000000000 T T T 
   0.3333333333    0.0000000000    0.0000000000 T T T 
   0.6666666667    0.1666666667    0.2500000000 T T T 
   0.3333333333    0.1666666667    0.2500000000 T T T 
   0.7500000000    0.0000000000    0.2500000000 T T T 
   0.2500000000    0.0000000000    0.2500000000 T T T 
   0.7500000000    0.1666666667    0.0000000000 T T T 
   0.2500000000    0.1666666667    0.0000000000 T T T 
   0.6666666667    0.0000000000    0.5000000000 T T T 
   0.3333333333    0.0000000000    0.5000000000 T T T 
   0.6666666667    0.1666666667    0.7500000000 T T T 
   0.3333333333    0.1666666667    0.7500000000 T T T 
   0.7500000000    0.0000000000    0.7500000000 T T T 
   0.2500000000    0.0000000000    0.7500000000 T T T 
   0.7500000000    0.1666666667    0.5000000000 T T T 
   0.2500000000    0.1666666667    0.5000000000 T T T 
   0.6666666667    0.3333333333    0.0000000000 T T T 
   0.3333333333    0.3333333333    0.0000000000 T T T 
   0.6666666667    0.5000000000    0.2500000000 T T T 
   0.3333333333    0.5000000000    0.2500000000 T T T 
   0.7500000000    0.3333333333    0.2500000000 T T T 
   0.2500000000    0.3333333333    0.2500000000 T T T 
   0.7500000000    0.5000000000    0.0000000000 T T T 
   0.2500000000    0.5000000000    0.0000000000 T T T 
   0.6666666667    0.3333333333    0.5000000000 T T T 
   0.3333333333    0.3333333333    0.5000000000 T T T 
   0.6666666667    0.5000000000    0.7500000000 T T T 
   0.3333333333    0.5000000000    0.7500000000 T T T 
   0.7500000000    0.3333333333    0.7500000000 T T T 
   0.2500000000    0.3333333333    0.7500000000 T T T 
   0.7500000000    0.5000000000    0.5000000000 T T T 
   0.2500000000    0.5000000000    0.5000000000 T T T 
   0.6666666667    0.6666666667    0.0000000000 T T T 
   0.3333333333    0.6666666667    0.0000000000 T T T 
   0.6666666667    0.8333333333    0.2500000000 T T T 
   0.3333333333    0.8333333333    0.2500000000 T T T 
   0.7500000000    0.6666666667    0.2500000000 T T T 
   0.2500000000    0.6666666667    0.2500000000 T T T 
   0.7500000000    0.8333333333    0.0000000000 T T T 
   0.2500000000    0.8333333333    0.0000000000 T T T 
   0.6666666667    0.6666666667    0.5000000000 T T T 
   0.3333333333    0.6666666667    0.5000000000 T T T 
   0.6666666667    0.8333333333    0.7500000000 T T T 
   0.3333333333    0.8333333333    0.7500000000 T T T 
   0.7500000000    0.6666666667    0.7500000000 T T T 
   0.2500000000    0.6666666667    0.7500000000 T T T 
   0.7500000000    0.8333333333    0.5000000000 T T T 
   0.2500000000    0.8333333333    0.5000000000 T T T 
   0.8333333333    0.0000000000    0.0000000000 T T T 
   0.1666666667    0.0000000000    0.0000000000 T T T 
   0.8333333333    0.1666666667    0.2500000000 T T T 
   0.1666666667    0.1666666667    0.2500000000 T T T 
   0.9166666667    0.0000000000    0.2500000000 T T T 
   0.0833333333    0.0000000000    0.2500000000 T T T 
   0.9166666667    0.1666666667    0.0000000000 T T T 
   0.0833333333    0.1666666667    0.0000000000 T T T 
   0.8333333333    0.0000000000    0.5000000000 T T T 
   0.1666666667    0.0000000000    0.5000000000 T T T 
   0.8333333333    0.1666666667    0.7500000000 T T T 
   0.1666666667    0.1666666667    0.7500000000 T T T 
   0.9166666667    0.0000000000    0.7500000000 T T T 
   0.0833333333    0.0000000000    0.7500000000 T T T 
   0.9166666667    0.1666666667    0.5000000000 T T T 
   0.0833333333    0.1666666667    0.5000000000 T T T 
   0.8333333333    0.3333333333    0.0000000000 T T T 
   0.1666666667    0.3333333333    0.0000000000 T T T 
   0.8333333333    0.5000000000    0.2500000000 T T T 
   0.1666666667    0.5000000000    0.2500000000 T T T 
   0.9166666667    0.3333333333    0.2500000000 T T T 
   0.0833333333    0.3333333333    0.2500000000 T T T 
   0.9166666667    0.5000000000    0.0000000000 T T T 
   0.0833333333    0.5000000000    0.0000000000 T T T 
   0.8333333333    0.3333333333    0.5000000000 T T T 
   0.1666666667    0.3333333333    0.5000000000 T T T 
   0.8333333333    0.5000000000    0.7500000000 T T T 
   0.1666666667    0.5000000000    0.7500000000 T T T 
   0.9166666667    0.3333333333    0.7500000000 T T T 
   0.0833333333    0.3333333333    0.7500000000 T T T 
   0.9166666667    0.5000000000    0.5000000000 T T T 
   0.0833333333    0.5000000000    0.5000000000 T T T 
   0.8333333333    0.6666666667    0.0000000000 T T T 
   0.1666666667    0.6666666667    0.0000000000 T T T 
   0.8333333333    0.8333333333    0.2500000000 T T T 
   0.1666666667    0.8333333333    0.2500000000 T T T 
   0.9166666667    0.6666666667    0.2500000000 T T T 
   0.0833333333    0.6666666667    0.2500000000 T T T 
   0.9166666667    0.8333333333    0.0000000000 T T T 
   0.0833333333    0.8333333333    0.0000000000 T T T 
   0.8333333333    0.6666666667    0.5000000000 T T T 
   0.1666666667    0.6666666667    0.5000000000 T T T 
   0.8333333333    0.8333333333    0.7500000000 T T T 
   0.1666666667    0.8333333333    0.7500000000 T T T 
   0.9166666667    0.6666666667    0.7500000000 T T T 
   0.0833333333    0.6666666667    0.7500000000 T T T 
   0.9166666667    0.8333333333    0.5000000000 T T T 
   0.0833333333    0.8333333333    0.5000000000 T T T 
