(Al)4  (Fm-3m) 
1.000000
  36.1501351320    0.0000000000    0.0000000000
   0.0000000000   18.2858574111    0.0000000000
   0.0000000000    0.0000000000    4.0413999558
162
Direct
   0.5000000000    0.0000000000    0.0000000000 T T T 
   0.5555555556    0.0122033645    0.5000000000 T T T 
   0.4444444444    0.0122033645    0.5000000000 T T T 
   0.5493827160    0.1220336445    0.0000000000 T T T 
   0.4506172840    0.1220336445    0.0000000000 T T T 
   0.5432098765    0.2318639246    0.5000000000 T T T 
   0.4567901235    0.2318639246    0.5000000000 T T T 
   0.5370370370    0.3416942046    0.0000000000 T T T 
   0.4629629630    0.3416942046    0.0000000000 T T T 
   0.5308641975    0.4515244847    0.5000000000 T T T 
   0.4691358025    0.4515244847    0.5000000000 T T T 
   0.5246913580    0.5613547648    0.0000000000 T T T 
   0.4753086420    0.5613547648    0.0000000000 T T T 
   0.5185185185    0.6711850448    0.5000000000 T T T 
   0.4814814815    0.6711850448    0.5000000000 T T T 
   0.5123456790    0.7810153249    0.0000000000 T T T 
   0.4876543210    0.7810153249    0.0000000000 T T T 
   0.5061728395    0.8908456050    0.5000000000 T T T 
   0.4938271605    0.8908456050    0.5000000000 T T T 
   0.6111111111    0.0244067289    0.0000000000 T T T 
   0.3888888889    0.0244067289    0.0000000000 T T T 
   0.6049382716    0.1342370090    0.5000000000 T T T 
   0.3950617284    0.1342370090    0.5000000000 T T T 
   0.6666666667    0.0366100934    0.5000000000 T T T 
   0.3333333333    0.0366100934    0.5000000000 T T T 
   0.6604938272    0.1464403734    0.0000000000 T T T 
   0.3395061728    0.1464403734    0.0000000000 T T T 
   0.5987654321    0.2440672890    0.0000000000 T T T 
   0.4012345679    0.2440672890    0.0000000000 T T T 
   0.5925925926    0.3538975691    0.5000000000 T T T 
   0.4074074074    0.3538975691    0.5000000000 T T T 
   0.6543209877    0.2562706535    0.5000000000 T T T 
   0.3456790123    0.2562706535    0.5000000000 T T T 
   0.6481481481    0.3661009335    0.0000000000 T T T 
   0.3518518519    0.3661009335    0.0000000000 T T T 
   0.5864197531    0.4637278492    0.0000000000 T T T 
   0.4135802469    0.4637278492    0.0000000000 T T T 
   0.5802469136    0.5735581292    0.5000000000 T T T 
   0.4197530864    0.5735581292    0.5000000000 T T T 
   0.6419753086    0.4759312136    0.5000000000 T T T 
   0.3580246914    0.4759312136    0.5000000000 T T T 
   0.6358024691    0.5857614937    0.0000000000 T T T 
   0.3641975309    0.5857614937    0.0000000000 T T T 
   0.5740740741    0.6833884093    0.0000000000 T T T 
   0.4259259259    0.6833884093    0.0000000000 T T T 
   0.5679012346    0.7932186893    0.5000000000 T T T 
   0.4320987654    0.7932186893    0.5000000000 T T T 
   0.6296296296    0.6955917737    0.5000000000 T T T 
   0.3703703704    0.6955917737    0.5000000000 T T T 
   0.6234567901    0.8054220538    0.0000000000 T T T 
   0.3765432099    0.8054220538    0.0000000000 T T T 
   0.5617283951    0.9030489694    0.0000000000 T T T 
   0.4382716049    0.9030489694    0.0000000000 T T T 
   0.6172839506    0.9152523339    0.5000000000 T T T 
   0.3827160494    0.9152523339    0.5000000000 T T T 
   0.7222222222    0.0488134578    0.0000000000 T T T 
   0.2777777778    0.0488134578    0.0000000000 T T T 
   0.7160493827    0.1586437379    0.5000000000 T T T 
   0.2839506173    0.1586437379    0.5000000000 T T T 
   0.7777777778    0.0610168223    0.5000000000 T T T 
   0.2222222222    0.0610168223    0.5000000000 T T T 
   0.7716049383    0.1708471023    0.0000000000 T T T 
   0.2283950617    0.1708471023    0.0000000000 T T T 
   0.7098765432    0.2684740179    0.0000000000 T T T 
   0.2901234568    0.2684740179    0.0000000000 T T T 
   0.7037037037    0.3783042980    0.5000000000 T T T 
   0.2962962963    0.3783042980    0.5000000000 T T T 
   0.7654320988    0.2806773824    0.5000000000 T T T 
   0.2345679012    0.2806773824    0.5000000000 T T T 
   0.7592592593    0.3905076624    0.0000000000 T T T 
   0.2407407407    0.3905076624    0.0000000000 T T T 
   0.6975308642    0.4881345781    0.0000000000 T T T 
   0.3024691358    0.4881345781    0.0000000000 T T T 
   0.6913580247    0.5979648581    0.5000000000 T T T 
   0.3086419753    0.5979648581    0.5000000000 T T T 
   0.7530864198    0.5003379425    0.5000000000 T T T 
   0.2469135802    0.5003379425    0.5000000000 T T T 
   0.7469135802    0.6101682226    0.0000000000 T T T 
   0.2530864198    0.6101682226    0.0000000000 T T T 
   0.6851851852    0.7077951382    0.0000000000 T T T 
   0.3148148148    0.7077951382    0.0000000000 T T T 
   0.6790123457    0.8176254183    0.5000000000 T T T 
   0.3209876543    0.8176254183    0.5000000000 T T T 
   0.7407407407    0.7199985026    0.5000000000 T T T 
   0.2592592593    0.7199985026    0.5000000000 T T T 
   0.7345679012    0.8298287827    0.0000000000 T T T 
   0.2654320988    0.8298287827    0.0000000000 T T T 
   0.6728395062    0.9274556983    0.0000000000 T T T 
   0.3271604938    0.9274556983    0.0000000000 T T T 
   0.7283950617    0.9396590628    0.5000000000 T T T 
   0.2716049383    0.9396590628    0.5000000000 T T T 
   0.8333333333    0.0732201867    0.0000000000 T T T 
   0.1666666667    0.0732201867    0.0000000000 T T T 
   0.8271604938    0.1830504668    0.5000000000 T T T 
   0.1728395062    0.1830504668    0.5000000000 T T T 
   0.8888888889    0.0854235512    0.5000000000 T T T 
   0.1111111111    0.0854235512    0.5000000000 T T T 
   0.8827160494    0.1952538312    0.0000000000 T T T 
   0.1172839506    0.1952538312    0.0000000000 T T T 
   0.8209876543    0.2928807468    0.0000000000 T T T 
   0.1790123457    0.2928807468    0.0000000000 T T T 
   0.8148148148    0.4027110269    0.5000000000 T T T 
   0.1851851852    0.4027110269    0.5000000000 T T T 
   0.8765432099    0.3050841113    0.5000000000 T T T 
   0.1234567901    0.3050841113    0.5000000000 T T T 
   0.8703703704    0.4149143914    0.0000000000 T T T 
   0.1296296296    0.4149143914    0.0000000000 T T T 
   0.8086419753    0.5125413070    0.0000000000 T T T 
   0.1913580247    0.5125413070    0.0000000000 T T T 
   0.8024691358    0.6223715870    0.5000000000 T T T 
   0.1975308642    0.6223715870    0.5000000000 T T T 
   0.8641975309    0.5247446714    0.5000000000 T T T 
   0.1358024691    0.5247446714    0.5000000000 T T T 
   0.8580246914    0.6345749515    0.0000000000 T T T 
   0.1419753086    0.6345749515    0.0000000000 T T T 
   0.7962962963    0.7322018671    0.0000000000 T T T 
   0.2037037037    0.7322018671    0.0000000000 T T T 
   0.7901234568    0.8420321472    0.5000000000 T T T 
   0.2098765432    0.8420321472    0.5000000000 T T T 
   0.8518518519    0.7444052315    0.5000000000 T T T 
   0.1481481481    0.7444052315    0.5000000000 T T T 
   0.8456790123    0.8542355116    0.0000000000 T T T 
   0.1543209877    0.8542355116    0.0000000000 T T T 
   0.7839506173    0.9518624272    0.0000000000 T T T 
   0.2160493827    0.9518624272    0.0000000000 T T T 
   0.8395061728    0.9640657917    0.5000000000 T T T 
   0.1604938272    0.9640657917    0.5000000000 T T T 
   0.9444444444    0.0976269156    0.0000000000 T T T 
   0.0555555556    0.0976269156    0.0000000000 T T T 
   0.9382716049    0.2074571957    0.5000000000 T T T 
   0.0617283951    0.2074571957    0.5000000000 T T T 
   0.0000000000    0.1098302801    0.5000000000 T T T 
   0.9938271605    0.2196605601    0.0000000000 T T T 
   0.0061728395    0.2196605601    0.0000000000 T T T 
   0.9320987654    0.3172874757    0.0000000000 T T T 
   0.0679012346    0.3172874757    0.0000000000 T T T 
   0.9259259259    0.4271177558    0.5000000000 T T T 
   0.0740740741    0.4271177558    0.5000000000 T T T 
   0.9876543210    0.3294908402    0.5000000000 T T T 
   0.0123456790    0.3294908402    0.5000000000 T T T 
   0.9814814815    0.4393211203    0.0000000000 T T T 
   0.0185185185    0.4393211203    0.0000000000 T T T 
   0.9197530864    0.5369480359    0.0000000000 T T T 
   0.0802469136    0.5369480359    0.0000000000 T T T 
   0.9135802469    0.6467783159    0.5000000000 T T T 
   0.0864197531    0.6467783159    0.5000000000 T T T 
   0.9753086420    0.5491514003    0.5000000000 T T T 
   0.0246913580    0.5491514003    0.5000000000 T T T 
   0.9691358025    0.6589816804    0.0000000000 T T T 
   0.0308641975    0.6589816804    0.0000000000 T T T 
   0.9074074074    0.7566085960    0.0000000000 T T T 
   0.0925925926    0.7566085960    0.0000000000 T T T 
   0.9012345679    0.8664388761    0.5000000000 T T T 
   0.0987654321    0.8664388761    0.5000000000 T T T 
   0.9629629630    0.7688119604    0.5000000000 T T T 
   0.0370370370    0.7688119604    0.5000000000 T T T 
   0.9567901235    0.8786422405    0.0000000000 T T T 
   0.0432098765    0.8786422405    0.0000000000 T T T 
   0.8950617284    0.9762691561    0.0000000000 T T T 
   0.1049382716    0.9762691561    0.0000000000 T T T 
   0.9506172840    0.9884725206    0.5000000000 T T T 
   0.0493827160    0.9884725206    0.5000000000 T T T 
