(Al)4  (Fm-3m) 
1.000000
  28.0054728791    0.0000000000    0.0000000000
   0.0000000000   14.2681975131    0.0000000000
   0.0000000000    0.0000000000    4.0413999558
98
Direct
   0.5000000000    0.0000000000    0.0000000000 T T T 
   0.5714285714    0.0200284676    0.5000000000 T T T 
   0.4285714286    0.0200284676    0.5000000000 T T T 
   0.5612244898    0.1602277407    0.0000000000 T T T 
   0.4387755102    0.1602277407    0.0000000000 T T T 
   0.5510204082    0.3004270138    0.5000000000 T T T 
   0.4489795918    0.3004270138    0.5000000000 T T T 
   0.5408163265    0.4406262869    0.0000000000 T T T 
   0.4591836735    0.4406262869    0.0000000000 T T T 
   0.5306122449    0.5808255600    0.5000000000 T T T 
   0.4693877551    0.5808255600    0.5000000000 T T T 
   0.5204081633    0.7210248331    0.0000000000 T T T 
   0.4795918367    0.7210248331    0.0000000000 T T T 
   0.5102040816    0.8612241063    0.5000000000 T T T 
   0.4897959184    0.8612241063    0.5000000000 T T T 
   0.6428571429    0.0400569352    0.0000000000 T T T 
   0.3571428571    0.0400569352    0.0000000000 T T T 
   0.6326530612    0.1802562083    0.5000000000 T T T 
   0.3673469388    0.1802562083    0.5000000000 T T T 
   0.7142857143    0.0600854028    0.5000000000 T T T 
   0.2857142857    0.0600854028    0.5000000000 T T T 
   0.7040816327    0.2002846759    0.0000000000 T T T 
   0.2959183673    0.2002846759    0.0000000000 T T T 
   0.6224489796    0.3204554814    0.0000000000 T T T 
   0.3775510204    0.3204554814    0.0000000000 T T T 
   0.6122448980    0.4606547545    0.5000000000 T T T 
   0.3877551020    0.4606547545    0.5000000000 T T T 
   0.6938775510    0.3404839490    0.5000000000 T T T 
   0.3061224490    0.3404839490    0.5000000000 T T T 
   0.6836734694    0.4806832221    0.0000000000 T T T 
   0.3163265306    0.4806832221    0.0000000000 T T T 
   0.6020408163    0.6008540276    0.0000000000 T T T 
   0.3979591837    0.6008540276    0.0000000000 T T T 
   0.5918367347    0.7410533007    0.5000000000 T T T 
   0.4081632653    0.7410533007    0.5000000000 T T T 
   0.6734693878    0.6208824952    0.5000000000 T T T 
   0.3265306122    0.6208824952    0.5000000000 T T T 
   0.6632653061    0.7610817683    0.0000000000 T T T 
   0.3367346939    0.7610817683    0.0000000000 T T T 
   0.5816326531    0.8812525738    0.0000000000 T T T 
   0.4183673469    0.8812525738    0.0000000000 T T T 
   0.6530612245    0.9012810414    0.5000000000 T T T 
   0.3469387755    0.9012810414    0.5000000000 T T T 
   0.7857142857    0.0801138703    0.0000000000 T T T 
   0.2142857143    0.0801138703    0.0000000000 T T T 
   0.7755102041    0.2203131435    0.5000000000 T T T 
   0.2244897959    0.2203131435    0.5000000000 T T T 
   0.8571428571    0.1001423379    0.5000000000 T T T 
   0.1428571429    0.1001423379    0.5000000000 T T T 
   0.8469387755    0.2403416110    0.0000000000 T T T 
   0.1530612245    0.2403416110    0.0000000000 T T T 
   0.7653061224    0.3605124166    0.0000000000 T T T 
   0.2346938776    0.3605124166    0.0000000000 T T T 
   0.7551020408    0.5007116897    0.5000000000 T T T 
   0.2448979592    0.5007116897    0.5000000000 T T T 
   0.8367346939    0.3805408842    0.5000000000 T T T 
   0.1632653061    0.3805408842    0.5000000000 T T T 
   0.8265306122    0.5207401573    0.0000000000 T T T 
   0.1734693878    0.5207401573    0.0000000000 T T T 
   0.7448979592    0.6409109628    0.0000000000 T T T 
   0.2551020408    0.6409109628    0.0000000000 T T T 
   0.7346938776    0.7811102359    0.5000000000 T T T 
   0.2653061224    0.7811102359    0.5000000000 T T T 
   0.8163265306    0.6609394304    0.5000000000 T T T 
   0.1836734694    0.6609394304    0.5000000000 T T T 
   0.8061224490    0.8011387035    0.0000000000 T T T 
   0.1938775510    0.8011387035    0.0000000000 T T T 
   0.7244897959    0.9213095090    0.0000000000 T T T 
   0.2755102041    0.9213095090    0.0000000000 T T T 
   0.7959183673    0.9413379766    0.5000000000 T T T 
   0.2040816327    0.9413379766    0.5000000000 T T T 
   0.9285714286    0.1201708055    0.0000000000 T T T 
   0.0714285714    0.1201708055    0.0000000000 T T T 
   0.9183673469    0.2603700786    0.5000000000 T T T 
   0.0816326531    0.2603700786    0.5000000000 T T T 
   0.0000000000    0.1401992731    0.5000000000 T T T 
   0.9897959184    0.2803985462    0.0000000000 T T T 
   0.0102040816    0.2803985462    0.0000000000 T T T 
   0.9081632653    0.4005693517    0.0000000000 T T T 
   0.0918367347    0.4005693517    0.0000000000 T T T 
   0.8979591837    0.5407686249    0.5000000000 T T T 
   0.1020408163    0.5407686249    0.5000000000 T T T 
   0.9795918367    0.4205978193    0.5000000000 T T T 
   0.0204081633    0.4205978193    0.5000000000 T T T 
   0.9693877551    0.5607970924    0.0000000000 T T T 
   0.0306122449    0.5607970924    0.0000000000 T T T 
   0.8877551020    0.6809678980    0.0000000000 T T T 
   0.1122448980    0.6809678980    0.0000000000 T T T 
   0.8775510204    0.8211671711    0.5000000000 T T T 
   0.1224489796    0.8211671711    0.5000000000 T T T 
   0.9591836735    0.7009963656    0.5000000000 T T T 
   0.0408163265    0.7009963656    0.5000000000 T T T 
   0.9489795918    0.8411956387    0.0000000000 T T T 
   0.0510204082    0.8411956387    0.0000000000 T T T 
   0.8673469388    0.9613664442    0.0000000000 T T T 
   0.1326530612    0.9613664442    0.0000000000 T T T 
   0.9387755102    0.9813949118    0.5000000000 T T T 
   0.0612244898    0.9813949118    0.5000000000 T T T 
