(Al)4  (Fm-3m) 
1.000000
11.502026 0.000000 0.000000
0.000000 6.286319 0.000000
0.000000 0.000000 16.165600
67
Selective dynamics
Direct
  0.500000  0.000000  0.000000 T T T
  0.666667  0.101650  0.125000 T T T
  0.333333  0.101650  0.125000 T T T
  0.611111  0.406598  0.000000 T T T
  0.388889  0.406598  0.000000 T T T
  0.500000  0.000000  0.250000 T T T
  0.666667  0.101650  0.375000 T T T
  0.333333  0.101650  0.375000 T T T
  0.611111  0.406598  0.250000 T T T
  0.388889  0.406598  0.250000 T T T
  0.500000  0.000000  0.500000 T T T
  0.666667  0.101650  0.625000 T T T
  0.333333  0.101650  0.625000 T T T
  0.611111  0.406598  0.500000 T T T
  0.388889  0.406598  0.500000 T T T
  0.500000  0.000000  0.750000 T T T
  0.666667  0.101650  0.875000 T T T
  0.333333  0.101650  0.875000 T T T
  0.611111  0.406598  0.750000 T T T
  0.388889  0.406598  0.750000 T T T
  0.444444  0.711547  0.125000 T T T
  0.555556  0.711547  0.375000 T T T
  0.444444  0.711547  0.625000 T T T
  0.444444  0.711547  0.875000 T T T
  0.833333  0.203299  0.000000 T T T
  0.166667  0.203299  0.000000 T T T
  0.777778  0.508248  0.125000 T T T
  0.222222  0.508248  0.125000 T T T
  0.000000  0.304949  0.125000 T T T
  0.944444  0.609897  0.000000 T T T
  0.055556  0.609897  0.000000 T T T
  0.833333  0.203299  0.250000 T T T
  0.166667  0.203299  0.250000 T T T
  0.777778  0.508248  0.375000 T T T
  0.222222  0.508248  0.375000 T T T
  0.000000  0.304949  0.375000 T T T
  0.944444  0.609897  0.250000 T T T
  0.833333  0.203299  0.500000 T T T
  0.166667  0.203299  0.500000 T T T
  0.777778  0.508248  0.625000 T T T
  0.222222  0.508248  0.625000 T T T
  0.000000  0.304949  0.625000 T T T
  0.944444  0.609897  0.500000 T T T
  0.055556  0.609897  0.500000 T T T
  0.833333  0.203299  0.750000 T T T
  0.166667  0.203299  0.750000 T T T
  0.777778  0.508248  0.875000 T T T
  0.222222  0.508248  0.875000 T T T
  0.000000  0.304949  0.875000 T T T
  0.944444  0.609897  0.750000 T T T
  0.055556  0.609897  0.750000 T T T
  0.722222  0.813196  0.000000 T T T
  0.277778  0.813196  0.000000 T T T
  0.888889  0.914846  0.125000 T T T
  0.111111  0.914846  0.125000 T T T
  0.722222  0.813196  0.250000 T T T
  0.277778  0.813196  0.250000 T T T
  0.888889  0.914846  0.375000 T T T
  0.111111  0.914846  0.375000 T T T
  0.722222  0.813196  0.500000 T T T
  0.277778  0.813196  0.500000 T T T
  0.888889  0.914846  0.625000 T T T
  0.111111  0.914846  0.625000 T T T
  0.722222  0.813196  0.750000 T T T
  0.277778  0.813196  0.750000 T T T
  0.888889  0.914846  0.875000 T T T
  0.111111  0.914846  0.875000 T T T
