(Al)4  (Fm-3m) 
   1.00000000000000     
  1.41421356237310   0.0000000000000000  0.0000000000000000
  0.000000000000000   2.82842712474620   0.0000000000000000
  0.000000000000000   0.0000000000000000  1.0000000
   4
Direct
  0.0000000000000000  0.0000000000000000  0.0000000000000000
  0.0000000000000000  0.5000000000000000  0.0000000000000000
  0.5000000000000000  0.2500000000000000  0.5000000000000000
  0.5000000000000000  0.7500000000000000  0.5000000000000000
