(Al)4  (Fm-3m) 
1.000000
  13.4739235778    0.0000000000    0.0000000000
   0.0000000000    5.5088455509    0.0000000000
   0.0000000000    0.0000000000    8.0827999115
38
Direct
   0.5000000000    0.0000000000    0.0000000000 T T T 
   0.6470588235    0.0719373717    0.2500000000 T T T 
   0.3529411765    0.0719373717    0.2500000000 T T T 
   0.6176470588    0.4316242301    0.0000000000 T T T 
   0.3823529412    0.4316242301    0.0000000000 T T T 
   0.5000000000    0.0000000000    0.5000000000 T T T 
   0.6470588235    0.0719373717    0.7500000000 T T T 
   0.3529411765    0.0719373717    0.7500000000 T T T 
   0.6176470588    0.4316242301    0.5000000000 T T T 
   0.3823529412    0.4316242301    0.5000000000 T T T 
   0.5882352941    0.7913110885    0.2500000000 T T T 
   0.4117647059    0.7913110885    0.2500000000 T T T 
   0.5882352941    0.7913110885    0.7500000000 T T T 
   0.4117647059    0.7913110885    0.7500000000 T T T 
   0.7941176471    0.1438747434    0.0000000000 T T T 
   0.2058823529    0.1438747434    0.0000000000 T T T 
   0.7647058824    0.5035616018    0.2500000000 T T T 
   0.2352941176    0.5035616018    0.2500000000 T T T 
   0.9411764706    0.2158121150    0.2500000000 T T T 
   0.0588235294    0.2158121150    0.2500000000 T T T 
   0.9117647059    0.5754989735    0.0000000000 T T T 
   0.0882352941    0.5754989735    0.0000000000 T T T 
   0.7941176471    0.1438747434    0.5000000000 T T T 
   0.2058823529    0.1438747434    0.5000000000 T T T 
   0.7647058824    0.5035616018    0.7500000000 T T T 
   0.2352941176    0.5035616018    0.7500000000 T T T 
   0.9411764706    0.2158121150    0.7500000000 T T T 
   0.0588235294    0.2158121150    0.7500000000 T T T 
   0.9117647059    0.5754989735    0.5000000000 T T T 
   0.0882352941    0.5754989735    0.5000000000 T T T 
   0.7352941176    0.8632484602    0.0000000000 T T T 
   0.2647058824    0.8632484602    0.0000000000 T T T 
   0.8823529412    0.9351858319    0.2500000000 T T T 
   0.1176470588    0.9351858319    0.2500000000 T T T 
   0.7352941176    0.8632484602    0.5000000000 T T T 
   0.2647058824    0.8632484602    0.5000000000 T T T 
   0.8823529412    0.9351858319    0.7500000000 T T T 
   0.1176470588    0.9351858319    0.7500000000 T T T 
