(Al)4  (Fm-3m) 
1.000000
   8.0827999115    0.0000000000    0.0000000000
   0.0000000000    4.0413999558    0.0000000000
   0.0000000000    0.0000000000    0.0000000000
0
Direct
