(Al) Source:POSCAR;Expand:4,4,1;Shaped;Rotate:1/2,36.87[degrees];Mirrorred;Shaped2;Cut:0.83010-0.79057
   1.00000000000000
  26.8380607652    0.0000000000    0.0000000000
   0.0000000000   12.7800289358    0.0000000000
   0.0000000000    0.0000000000    4.0414000000
  85
Selective dynamics
Direct
   0.5000000000    0.0000000000    0.0000000000 T T T
   0.5714285714    0.0500000000    0.5000000000 T T T
   0.5476190476    0.2000000000    0.0000000000 T T T
   0.5238095238    0.3500000000    0.5000000000 T T T
   0.5000000000    0.5000000000    0.0000000000 T T T
   0.9761904762    1.0000000000    0.0000000000 T T T
   0.9523809524    0.1500000000    0.5000000000 T T T
   0.9285714286    0.3000000000    0.0000000000 T T T
   0.9047619048    0.4500000000    0.5000000000 T T T
   0.9761904762    0.5000000000    0.0000000000 T T T
   0.6428571429    0.1000000000    0.0000000000 T T T
   0.6190476190    0.2500000000    0.5000000000 T T T
   0.7142857143    0.1500000000    0.5000000000 T T T
   0.6904761905    0.3000000000    0.0000000000 T T T
   0.5952380952    0.4000000000    0.0000000000 T T T
   0.5714285714    0.5500000000    0.5000000000 T T T
   0.6666666667    0.4500000000    0.5000000000 T T T
   0.6428571429    0.6000000000    0.0000000000 T T T
   0.5476190476    0.7000000000    0.0000000000 T T T
   0.5238095238    0.8500000000    0.5000000000 T T T
   0.6190476190    0.7500000000    0.5000000000 T T T
   0.5952380952    0.9000000000    0.0000000000 T T T
   0.5000000000    1.0000000000    0.0000000000 T T T
   0.7857142857    0.2000000000    0.0000000000 T T T
   0.7619047619    0.3500000000    0.5000000000 T T T
   0.8571428571    0.2500000000    0.5000000000 T T T
   0.8333333333    0.4000000000    0.0000000000 T T T
   0.7380952381    0.5000000000    0.0000000000 T T T
   0.7142857143    0.6500000000    0.5000000000 T T T
   0.8095238095    0.5500000000    0.5000000000 T T T
   0.7857142857    0.7000000000    0.0000000000 T T T
   0.6904761905    0.8000000000    0.0000000000 T T T
   0.6666666667    0.9500000000    0.5000000000 T T T
   0.7619047619    0.8500000000    0.5000000000 T T T
   0.7380952381    0.0000000000    0.0000000000 T T T
   0.8809523810    0.1000000000    0.0000000000 T T T
   0.8809523810    0.6000000000    0.0000000000 T T T
   0.8571428571    0.7500000000    0.5000000000 T T T
   0.9523809524    0.6500000000    0.5000000000 T T T
   0.9285714286    0.8000000000    0.0000000000 T T T
   0.8333333333    0.9000000000    0.0000000000 T T T
   0.8095238095    0.0500000000    0.5000000000 T T T
   0.9047619048    0.9500000000    0.5000000000 T T T
   0.4285714286    0.0500000000    0.5000000000 T T T
   0.4523809524    0.2000000000    0.0000000000 T T T
   0.0000000000    0.8500000000    0.5000000000 T T T
   0.4761904762    0.3500000000    0.5000000000 T T T
   0.0238095238    1.0000000000    0.0000000000 T T T
   0.0476190476    0.1500000000    0.5000000000 T T T
   0.0714285714    0.3000000000    0.0000000000 T T T
   0.0952380952    0.4500000000    0.5000000000 T T T
   0.0000000000    0.3500000000    0.5000000000 T T T
   0.0238095238    0.5000000000    0.0000000000 T T T
   0.3571428571    0.1000000000    0.0000000000 T T T
   0.3809523810    0.2500000000    0.5000000000 T T T
   0.2857142857    0.1500000000    0.5000000000 T T T
   0.3095238095    0.3000000000    0.0000000000 T T T
   0.4047619048    0.4000000000    0.0000000000 T T T
   0.4285714286    0.5500000000    0.5000000000 T T T
   0.3333333333    0.4500000000    0.5000000000 T T T
   0.3571428571    0.6000000000    0.0000000000 T T T
   0.4523809524    0.7000000000    0.0000000000 T T T
   0.4761904762    0.8500000000    0.5000000000 T T T
   0.3809523810    0.7500000000    0.5000000000 T T T
   0.4047619048    0.9000000000    0.0000000000 T T T
   0.2142857143    0.2000000000    0.0000000000 T T T
   0.2380952381    0.3500000000    0.5000000000 T T T
   0.1428571429    0.2500000000    0.5000000000 T T T
   0.1666666667    0.4000000000    0.0000000000 T T T
   0.2619047619    0.5000000000    0.0000000000 T T T
   0.2857142857    0.6500000000    0.5000000000 T T T
   0.1904761905    0.5500000000    0.5000000000 T T T
   0.2142857143    0.7000000000    0.0000000000 T T T
   0.3095238095    0.8000000000    0.0000000000 T T T
   0.3333333333    0.9500000000    0.5000000000 T T T
   0.2380952381    0.8500000000    0.5000000000 T T T
   0.2619047619    0.0000000000    0.0000000000 T T T
   0.1190476190    0.1000000000    0.0000000000 T T T
   0.1190476190    0.6000000000    0.0000000000 T T T
   0.1428571429    0.7500000000    0.5000000000 T T T
   0.0476190476    0.6500000000    0.5000000000 T T T
   0.0714285714    0.8000000000    0.0000000000 T T T
   0.1666666667    0.9000000000    0.0000000000 T T T
   0.1904761905    0.0500000000    0.5000000000 T T T
   0.0952380952    0.9500000000    0.5000000000 T T T
