(Al)4  (Fm-3m) 
1.000000
   2.8577013142    0.0000000000    0.0000000000
   0.0000000000   13.6966572502    0.0000000000
   0.0000000000    0.0000000000    8.0827999115
36
Direct
   0.5000000000    0.0000000000    0.0000000000 T T T 
   1.0000000000    0.1043211224    0.2500000000 T T T 
   0.0000000000    0.1043211224    0.2500000000 T T T 
   0.5000000000    0.2086422447    0.0000000000 T T T 
   0.5000000000    0.2086422447    0.0000000000 T T T 
   0.5000000000    0.0000000000    0.5000000000 T T T 
   1.0000000000    0.1043211224    0.7500000000 T T T 
   0.0000000000    0.1043211224    0.7500000000 T T T 
   0.5000000000    0.2086422447    0.5000000000 T T T 
   0.5000000000    0.2086422447    0.5000000000 T T T 
   1.0000000000    0.3129633671    0.2500000000 T T T 
   0.0000000000    0.3129633671    0.2500000000 T T T 
   1.0000000000    0.3129633671    0.7500000000 T T T 
   0.0000000000    0.3129633671    0.7500000000 T T T 
   0.5000000000    0.4172844895    0.0000000000 T T T 
   0.5000000000    0.4172844895    0.0000000000 T T T 
   1.0000000000    0.5216056119    0.2500000000 T T T 
   0.0000000000    0.5216056119    0.2500000000 T T T 
   0.5000000000    0.6259267342    0.0000000000 T T T 
   0.5000000000    0.6259267342    0.0000000000 T T T 
   0.5000000000    0.4172844895    0.5000000000 T T T 
   0.5000000000    0.4172844895    0.5000000000 T T T 
   1.0000000000    0.5216056119    0.7500000000 T T T 
   0.0000000000    0.5216056119    0.7500000000 T T T 
   0.5000000000    0.6259267342    0.5000000000 T T T 
   0.5000000000    0.6259267342    0.5000000000 T T T 
   1.0000000000    0.7302478566    0.2500000000 T T T 
   0.0000000000    0.7302478566    0.2500000000 T T T 
   1.0000000000    0.7302478566    0.7500000000 T T T 
   0.0000000000    0.7302478566    0.7500000000 T T T 
   0.5000000000    0.8345689790    0.0000000000 T T T 
   0.5000000000    0.8345689790    0.0000000000 T T T 
   0.0000000000    0.9388901014    0.2500000000 T T T 
   0.5000000000    0.8345689790    0.5000000000 T T T 
   0.5000000000    0.8345689790    0.5000000000 T T T 
   0.0000000000    0.9388901014    0.7500000000 T T T 
